********************************************************
*                      VEMLab 2.0.2                      *
*      http://camlab.cl/research/software/vemlab       *
*------------------------------------------------------*
*               Linear Elastostatics                   *
********************************************************

Mesh filename: plate_with_hole_20poly_elems.txt
Method: VEM2D
Date: 16-5-2018
Time: 17:18 hrs

Nodal Displacements: 
 Node      Coords         u1       u2 
1 5.00000000 2.00000000 0.00006336 -0.00000473
2 5.00000000 1.27938288 0.00006344 -0.00000260
3 3.86825496 2.00000000 0.00005178 -0.00000451
4 2.83684892 2.00000000 0.00004000 -0.00000421
5 3.88808811 1.33074608 0.00005228 -0.00000248
6 4.12096287 1.10540574 0.00005481 -0.00000202
7 4.11359789 0.47384791 0.00005504 -0.00000047
8 5.00000000 0.22171830 0.00006371 0.00000000
9 5.00000000 -0.32738903 0.00006361 0.00000126
10 5.00000000 -1.19239856 0.00006315 0.00000341
11 5.00000000 -2.00000000 0.00006284 0.00000576
12 1.86332375 2.00000000 0.00002708 -0.00000535
13 0.93857338 2.00000000 0.00001302 -0.00001087
14 0.00000000 1.05668153 0.00000000 -0.00001261
15 0.00000000 2.00000000 0.00000000 -0.00001779
16 3.01079074 0.98674095 0.00004393 -0.00000105
17 1.92223126 1.04564393 0.00003246 -0.00000149
18 2.85235341 1.13710931 0.00004194 -0.00000137
19 3.05380962 0.62435455 0.00004521 -0.00000020
20 3.79784184 0.18870712 0.00005216 0.00000021
21 3.96220633 -0.49257802 0.00005345 0.00000169
22 3.77250148 -0.24049104 0.00005186 0.00000120
23 3.93365757 -1.10170418 0.00005263 0.00000319
24 4.02670910 -1.21614745 0.00005339 0.00000354
25 4.01512651 -2.00000000 0.00005285 0.00000586
26 1.86900403 0.98180460 0.00003289 -0.00000101
27 0.98146934 0.98437317 0.00002160 -0.00000539
28 0.78718623 0.79967622 0.00002450 -0.00000616
29 1.99949433 0.15715240 0.00003830 0.00000115
30 2.60553698 0.05865573 0.00004220 0.00000060
31 2.87607971 -0.46616930 0.00004372 0.00000135
32 2.76420790 -0.86913528 0.00004157 0.00000222
33 3.06344440 -1.23262578 0.00004354 0.00000322
34 2.97733859 -2.00000000 0.00004140 0.00000564
35 1.71913063 -0.10298829 0.00003708 0.00000057
36 1.05622815 -0.00571122 0.00003589 0.00000083
37 1.87562584 -0.96548859 0.00003258 0.00000235
38 2.01108279 -1.05502292 0.00003316 0.00000291
39 2.07014715 -2.00000000 0.00002957 0.00000626
40 1.05238096 -1.17134176 0.00002051 0.00000762
41 0.70798151 -0.84816869 0.00002126 0.00000919
42 1.00039493 -2.00000000 0.00001364 0.00001205
43 0.59984355 -0.84985464 0.00001919 0.00000931
44 -0.00000000 -2.00000000 0.00000000 0.00001962
45 -0.00000000 -1.05909146 0.00000000 0.00001466
Strains, Stresses, Principal Strains and Principal Stresses: 
(quantities are constant in the element)

Element 1
e_11      e_22      e_33     e_12      s_11       s_22       s_33      s_12      VM      e_1      e_2      e_3      s_1      s_2      s_3 
 0.0000 -0.0000 -0.0000 -0.0000 108.1937  1.0859  0.0000 -7.0926 108.3535  0.0000 -0.0000 -0.0000 108.6613  0.6182  0.0000
Element 2
e_11      e_22      e_33     e_12      s_11       s_22       s_33      s_12      VM      e_1      e_2      e_3      s_1      s_2      s_3 
 0.0000 -0.0000 -0.0000 -0.0000 108.1937  1.0859  0.0000 -7.0926 108.3535  0.0000 -0.0000 -0.0000 108.6613  0.6182  0.0000
Element 3
e_11      e_22      e_33     e_12      s_11       s_22       s_33      s_12      VM      e_1      e_2      e_3      s_1      s_2      s_3 
 0.0000 -0.0000 -0.0000 -0.0000 108.1937  1.0859  0.0000 -7.0926 108.3535  0.0000 -0.0000 -0.0000 108.6613  0.6182  0.0000
Element 4
e_11      e_22      e_33     e_12      s_11       s_22       s_33      s_12      VM      e_1      e_2      e_3      s_1      s_2      s_3 
 0.0000 -0.0000 -0.0000 -0.0000 88.1726 10.4153  0.0000 -0.0008 83.4538  0.0000 -0.0000 -0.0000 88.1726 10.4153  0.0000
Element 5
e_11      e_22      e_33     e_12      s_11       s_22       s_33      s_12      VM      e_1      e_2      e_3      s_1      s_2      s_3 
 0.0000 -0.0000 -0.0000 -0.0000 88.1726 10.4153  0.0000 -0.0008 83.4538  0.0000 -0.0000 -0.0000 88.1726 10.4153  0.0000
Element 6
e_11      e_22      e_33     e_12      s_11       s_22       s_33      s_12      VM      e_1      e_2      e_3      s_1      s_2      s_3 
 0.0000 -0.0000 -0.0000 -0.0000 88.1726 10.4153  0.0000 -0.0008 83.4538  0.0000 -0.0000 -0.0000 88.1726 10.4153  0.0000
Element 7
e_11      e_22      e_33     e_12      s_11       s_22       s_33      s_12      VM      e_1      e_2      e_3      s_1      s_2      s_3 
 0.0000 -0.0000 -0.0000 -0.0000 177.2781  3.9797  0.0000 -1.3168 175.3370  0.0000 -0.0000 -0.0000 177.2881  3.9696  0.0000
Element 8
e_11      e_22      e_33     e_12      s_11       s_22       s_33      s_12      VM      e_1      e_2      e_3      s_1      s_2      s_3 
 0.0000 -0.0000 -0.0000 -0.0000 177.2781  3.9797  0.0000 -1.3168 175.3370  0.0000 -0.0000 -0.0000 177.2881  3.9696  0.0000
Element 9
e_11      e_22      e_33     e_12      s_11       s_22       s_33      s_12      VM      e_1      e_2      e_3      s_1      s_2      s_3 
 0.0000 -0.0000 -0.0000 -0.0000 177.2781  3.9797  0.0000 -1.3168 175.3370  0.0000 -0.0000 -0.0000 177.2881  3.9696  0.0000
Element 10
e_11      e_22      e_33     e_12      s_11       s_22       s_33      s_12      VM      e_1      e_2      e_3      s_1      s_2      s_3 
 0.0000 -0.0000 -0.0000 -0.0000 177.2781  3.9797  0.0000 -1.3168 175.3370  0.0000 -0.0000 -0.0000 177.2881  3.9696  0.0000
Element 11
e_11      e_22      e_33     e_12      s_11       s_22       s_33      s_12      VM      e_1      e_2      e_3      s_1      s_2      s_3 
 0.0000 -0.0000 -0.0000  0.0000 96.3362  5.8257  0.0000  7.6649 94.4967  0.0000 -0.0000 -0.0000 96.9808  5.1812  0.0000
Element 12
e_11      e_22      e_33     e_12      s_11       s_22       s_33      s_12      VM      e_1      e_2      e_3      s_1      s_2      s_3 
 0.0000 -0.0000 -0.0000  0.0000 96.3362  5.8257  0.0000  7.6649 94.4967  0.0000 -0.0000 -0.0000 96.9808  5.1812  0.0000
Element 13
e_11      e_22      e_33     e_12      s_11       s_22       s_33      s_12      VM      e_1      e_2      e_3      s_1      s_2      s_3 
 0.0000 -0.0000 -0.0000  0.0000 96.3362  5.8257  0.0000  7.6649 94.4967  0.0000 -0.0000 -0.0000 96.9808  5.1812  0.0000
Element 14
e_11      e_22      e_33     e_12      s_11       s_22       s_33      s_12      VM      e_1      e_2      e_3      s_1      s_2      s_3 
 0.0000 -0.0000 -0.0000  0.0000 96.3362  5.8257  0.0000  7.6649 94.4967  0.0000 -0.0000 -0.0000 96.9808  5.1812  0.0000
Element 15
e_11      e_22      e_33     e_12      s_11       s_22       s_33      s_12      VM      e_1      e_2      e_3      s_1      s_2      s_3 
 0.0000 -0.0000 -0.0000  0.0000 98.1901  7.0362  0.0000  0.1933 94.8685  0.0000 -0.0000 -0.0000 98.1905  7.0358  0.0000
Element 16
e_11      e_22      e_33     e_12      s_11       s_22       s_33      s_12      VM      e_1      e_2      e_3      s_1      s_2      s_3 
 0.0000 -0.0000 -0.0000  0.0000 98.1901  7.0362  0.0000  0.1933 94.8685  0.0000 -0.0000 -0.0000 98.1905  7.0358  0.0000
Element 17
e_11      e_22      e_33     e_12      s_11       s_22       s_33      s_12      VM      e_1      e_2      e_3      s_1      s_2      s_3 
 0.0000 -0.0000 -0.0000  0.0000 98.1901  7.0362  0.0000  0.1933 94.8685  0.0000 -0.0000 -0.0000 98.1905  7.0358  0.0000
Element 18
e_11      e_22      e_33     e_12      s_11       s_22       s_33      s_12      VM      e_1      e_2      e_3      s_1      s_2      s_3 
 0.0000 -0.0000 -0.0000  0.0000 98.1901  7.0362  0.0000  0.1933 94.8685  0.0000 -0.0000 -0.0000 98.1905  7.0358  0.0000
Element 19
e_11      e_22      e_33     e_12      s_11       s_22       s_33      s_12      VM      e_1      e_2      e_3      s_1      s_2      s_3 
 0.0000 -0.0000 -0.0000  0.0000 181.2613  3.4185  0.0000  0.5972 179.5795  0.0000 -0.0000 -0.0000 181.2633  3.4165  0.0000
Element 20
e_11      e_22      e_33     e_12      s_11       s_22       s_33      s_12      VM      e_1      e_2      e_3      s_1      s_2      s_3 
 0.0000 -0.0000 -0.0000  0.0000 181.2613  3.4185  0.0000  0.5972 179.5795  0.0000 -0.0000 -0.0000 181.2633  3.4165  0.0000
