********************************************************
*                      VEMLab 2.1                      *
*      http://camlab.cl/research/software/vemlab       *
*------------------------------------------------------*
*               Linear Elastostatics                   *
********************************************************

Mesh filename: umag_letters_12poly_elems.txt
Method: VEM2D
Date: 6-10-2018
Time: 21:18 hrs

Nodal Displacements: 
 Node      Coords         u1       u2 
1 0.00000000 0.00000000 0.00000000 0.00000000
2 3.14000000 0.00000000 -0.08912778 -0.04191479
3 3.14000000 2.00000000 -0.04658119 -0.04200318
4 2.12000000 2.40000000 -0.03078881 -0.02763076
5 1.42000000 3.80000000 -0.01979270 -0.01649804
6 1.42000000 8.30000000 0.02610234 -0.01842807
7 2.34000000 8.30000000 0.03054903 -0.03438281
8 2.34000000 3.80000000 -0.01725770 -0.03281340
9 3.14000000 3.30000000 -0.02818290 -0.04229691
10 3.14000000 10.10000000 0.08377328 -0.04607751
11 0.00000000 10.10000000 0.00000000 0.00000000
12 8.25000000 0.00000000 -0.12842754 -0.17139335
13 8.25000000 3.60000000 -0.03506128 -0.17006599
14 6.98000000 5.60000000 0.01401555 -0.13948264
15 6.98000000 2.00000000 -0.06896694 -0.13826549
16 6.09000000 2.00000000 -0.06992459 -0.11250841
17 6.09000000 8.30000000 0.07598280 -0.11526122
18 6.35000000 8.30000000 0.07721606 -0.12407167
19 8.25000000 5.10000000 0.00332130 -0.17160399
20 8.25000000 10.10000000 0.13078540 -0.17583488
21 4.28000000 3.80000000 -0.02267159 -0.07080676
22 4.28000000 8.30000000 0.05907416 -0.07285314
23 5.04000000 8.30000000 0.06240330 -0.08875077
24 5.04000000 3.80000000 -0.02084838 -0.08589298
25 4.52000000 2.40000000 -0.04975036 -0.07358239
26 13.17000000 0.00000000 -0.15029889 -0.32177917
27 13.17000000 2.92000000 -0.06064440 -0.31936432
28 12.19000000 2.92000000 -0.05926487 -0.28929578
29 11.82000000 2.00000000 -0.08382950 -0.27816205
30 11.04000000 2.00000000 -0.08365905 -0.25313481
31 12.82000000 8.30000000 0.09513634 -0.31040465
32 13.17000000 8.30000000 0.09826741 -0.32168540
33 13.17000000 10.10000000 0.15488943 -0.32664910
34 10.09000000 8.30000000 0.08956399 -0.22901082
35 10.38000000 8.30000000 0.08866726 -0.23583733
36 10.38000000 2.00000000 -0.07951100 -0.23254837
37 9.55000000 2.00000000 -0.07911908 -0.20988593
38 9.55000000 5.58000000 0.01609933 -0.21138540
39 17.82000000 0.00000000 -0.15533868 -0.47070400
40 17.82000000 2.00000000 -0.09207565 -0.46819173
41 16.06000000 3.30000000 -0.05158195 -0.41215017
42 16.06000000 6.30000000 0.04152320 -0.41357755
43 17.82000000 8.30000000 0.10455079 -0.47111597
44 17.82000000 10.10000000 0.16158420 -0.47515316
45 13.62000000 8.30000000 0.10160408 -0.33583599
46 15.27000000 2.00000000 -0.09136717 -0.38574404
47 14.42000000 2.00000000 -0.09149090 -0.35949498
48 14.22000000 2.92000000 -0.06192697 -0.35304682
49 12.52000000 3.80000000 -0.03450499 -0.29908723
50 13.82000000 3.80000000 -0.03453743 -0.34001273
51 13.17000000 6.60000000 0.04837630 -0.32013420
52 20.52000000 0.00000000 -0.15530506 -0.55358044
53 20.52000000 10.10000000 0.16255149 -0.55823844
54 19.42000000 7.30000000 0.07406675 -0.52185087
55 18.82000000 6.50000000 0.04854841 -0.50255366
56 17.82000000 7.00000000 0.06394722 -0.47077313
57 16.62000000 5.10000000 0.00440237 -0.43134050
58 17.32000000 3.30000000 -0.05156241 -0.45300609
59 18.52000000 3.30000000 -0.05142626 -0.49162476
60 18.52000000 4.50000000 -0.01406730 -0.49221065
61 17.82000000 4.50000000 -0.01420387 -0.46987849
62 17.82000000 5.70000000 0.02368813 -0.47038346
63 19.42000000 5.70000000 0.02401278 -0.52098905
64 19.42000000 2.80000000 -0.06725782 -0.51963754
Strains, Stresses, Principal Strains and Principal Stresses: 
(quantities are constant in the element)

Element 1
e_11      e_22      e_33     e_12      s_11       s_22       s_33      s_12      VM      e_1      e_2      e_3      s_1      s_2      s_3 
-0.0001 -0.0001  0.0000 -0.0026 -1723.4980 -2090.9503 -1144.3345 -19703.6053 34137.6544  0.0025  0.0000 -0.0027 17797.2377 -1144.3345 -21611.6860
Element 2
e_11      e_22      e_33     e_12      s_11       s_22       s_33      s_12      VM      e_1      e_2      e_3      s_1      s_2      s_3 
-0.0001 -0.0001  0.0000 -0.0026 -1723.4980 -2090.9503 -1144.3345 -19703.6053 34137.6544  0.0025  0.0000 -0.0027 17797.2377 -1144.3345 -21611.6860
Element 3
e_11      e_22      e_33     e_12      s_11       s_22       s_33      s_12      VM      e_1      e_2      e_3      s_1      s_2      s_3 
-0.0001 -0.0001  0.0000 -0.0026 -1723.4980 -2090.9503 -1144.3345 -19703.6053 34137.6544  0.0025  0.0000 -0.0027 17797.2377 -1144.3345 -21611.6860
Element 4
e_11      e_22      e_33     e_12      s_11       s_22       s_33      s_12      VM      e_1      e_2      e_3      s_1      s_2      s_3 
-0.0001 -0.0001  0.0000 -0.0026 -1723.4980 -2090.9503 -1144.3345 -19703.6053 34137.6544  0.0025  0.0000 -0.0027 17797.2377 -1144.3345 -21611.6860
Element 5
e_11      e_22      e_33     e_12      s_11       s_22       s_33      s_12      VM      e_1      e_2      e_3      s_1      s_2      s_3 
-0.0001 -0.0001  0.0000 -0.0026 -1723.4980 -2090.9503 -1144.3345 -19703.6053 34137.6544  0.0025  0.0000 -0.0027 17797.2377 -1144.3345 -21611.6860
Element 6
e_11      e_22      e_33     e_12      s_11       s_22       s_33      s_12      VM      e_1      e_2      e_3      s_1      s_2      s_3 
-0.0001 -0.0001  0.0000 -0.0026 -1723.4980 -2090.9503 -1144.3345 -19703.6053 34137.6544  0.0025  0.0000 -0.0027 17797.2377 -1144.3345 -21611.6860
Element 7
e_11      e_22      e_33     e_12      s_11       s_22       s_33      s_12      VM      e_1      e_2      e_3      s_1      s_2      s_3 
-0.0001 -0.0001  0.0000 -0.0026 -1723.4980 -2090.9503 -1144.3345 -19703.6053 34137.6544  0.0025  0.0000 -0.0027 17797.2377 -1144.3345 -21611.6860
Element 8
e_11      e_22      e_33     e_12      s_11       s_22       s_33      s_12      VM      e_1      e_2      e_3      s_1      s_2      s_3 
-0.0001 -0.0001  0.0000 -0.0026 -1723.4980 -2090.9503 -1144.3345 -19703.6053 34137.6544  0.0025  0.0000 -0.0027 17797.2377 -1144.3345 -21611.6860
Element 9
e_11      e_22      e_33     e_12      s_11       s_22       s_33      s_12      VM      e_1      e_2      e_3      s_1      s_2      s_3 
-0.0001 -0.0001  0.0000 -0.0026 -1723.4980 -2090.9503 -1144.3345 -19703.6053 34137.6544  0.0025  0.0000 -0.0027 17797.2377 -1144.3345 -21611.6860
Element 10
e_11      e_22      e_33     e_12      s_11       s_22       s_33      s_12      VM      e_1      e_2      e_3      s_1      s_2      s_3 
 0.0009 -0.0007  0.0000 -0.0024 8470.0492 -3876.8274 1377.9665 -18206.7426 33311.1747  0.0026  0.0000 -0.0024 21521.5119 1377.9665 -16928.2901
Element 11
e_11      e_22      e_33     e_12      s_11       s_22       s_33      s_12      VM      e_1      e_2      e_3      s_1      s_2      s_3 
 0.0009 -0.0007  0.0000 -0.0024 8470.0492 -3876.8274 1377.9665 -18206.7426 33311.1747  0.0026  0.0000 -0.0024 21521.5119 1377.9665 -16928.2901
Element 12
e_11      e_22      e_33     e_12      s_11       s_22       s_33      s_12      VM      e_1      e_2      e_3      s_1      s_2      s_3 
 0.0009 -0.0007  0.0000 -0.0024 8470.0492 -3876.8274 1377.9665 -18206.7426 33311.1747  0.0026  0.0000 -0.0024 21521.5119 1377.9665 -16928.2901
