********************************************************
*                      VEMLab 1.0                      *
*      http://camlab.cl/research/software/vemlab       *
*------------------------------------------------------*
*               Linear Elastostatics                   *
********************************************************

Mesh filename: cantilever_beam_20poly_elems.txt
Method: VEM2D
Date: 17-2-2018
Time: 12:44 hrs

Nodal Displacements: 
 Node      Coords         u1       u2 
1 -0.00000000 -2.00000000 0.00013975 -0.00011700
2 -0.00000000 -0.73763634 0.00006915 -0.00001592
3 1.31799091 -2.00000000 -0.00012158 -0.00016093
4 1.31716348 -0.80376318 -0.00003324 -0.00010119
5 1.04799936 -0.61803223 -0.00001066 -0.00007038
6 1.04812829 0.61804480 0.00001066 -0.00007039
7 -0.00000000 0.73762160 -0.00006915 -0.00001591
8 -0.00000000 2.00000000 -0.00013975 -0.00011700
9 2.62724783 -2.00000000 -0.00033548 -0.00037811
10 2.17176409 -0.55783555 -0.00006319 -0.00023181
11 2.60931317 -0.81324370 -0.00011984 -0.00032710
12 2.17170640 0.55775903 0.00006318 -0.00023180
13 1.31699926 0.80355920 0.00003322 -0.00010116
14 1.31788943 2.00000000 0.00012156 -0.00016092
15 3.83845307 -2.00000000 -0.00049321 -0.00069356
16 3.37265248 -0.52150430 -0.00010287 -0.00051498
17 3.94907400 -0.83923483 -0.00019783 -0.00068940
18 3.37261662 0.52150506 0.00010287 -0.00051497
19 2.60907843 0.81313398 0.00011981 -0.00032704
20 2.62696090 2.00000000 0.00033544 -0.00037805
21 4.42460837 -0.65977511 -0.00017249 -0.00084217
22 5.28544002 -1.31322605 -0.00040086 -0.00115798
23 5.29642657 -2.00000000 -0.00063563 -0.00117629
24 4.72478154 0.00005466 0.00000001 -0.00094150
25 4.42450716 0.65980507 0.00017250 -0.00084214
26 3.94877711 0.83922931 0.00019782 -0.00068931
27 3.83812004 2.00000000 0.00049317 -0.00069346
28 6.73325145 -2.00000000 -0.00071206 -0.00173484
29 8.00000000 -2.00000000 -0.00073243 -0.00225956
30 5.66515025 0.00015424 0.00000005 -0.00129239
31 6.65535415 -0.81629536 -0.00027233 -0.00169053
32 5.97231768 -0.65117445 -0.00020886 -0.00141350
33 5.97218183 0.65130490 0.00020890 -0.00141345
34 5.28520952 1.31350228 0.00040094 -0.00115790
35 5.29615276 2.00000000 0.00063561 -0.00117619
36 6.93218367 -0.61700550 -0.00020984 -0.00180578
37 8.00000000 -0.72697623 -0.00025170 -0.00225562
38 6.65523114 0.81651972 0.00027241 -0.00169048
39 6.93236272 0.61698086 0.00020983 -0.00180586
40 6.73320360 2.00000000 0.00071206 -0.00173482
41 8.00000000 0.72695252 0.00025169 -0.00225562
42 8.00000000 2.00000000 0.00073243 -0.00225956
Strains, Stresses, Principal Strains and Principal Stresses: 
(quantities are constant in the element)

Element 1
e_11      e_22      e_33     e_12      s_11       s_22       s_33      s_12      VM      e_1      e_2      e_3      s_1      s_2      s_3 
-0.0001  0.0000  0.0000 -0.0000 -772.2837 17.8340 -226.3349 -177.4583 765.1514  0.0000  0.0000 -0.0001 55.8605 -226.3349 -810.3103
Element 2
e_11      e_22      e_33     e_12      s_11       s_22       s_33      s_12      VM      e_1      e_2      e_3      s_1      s_2      s_3 
 0.0000 -0.0000  0.0000 -0.0000 214.8349  5.6499 66.1454 -267.3566 499.2014  0.0000  0.0000 -0.0000 397.3298 66.1454 -176.8450
Element 3
e_11      e_22      e_33     e_12      s_11       s_22       s_33      s_12      VM      e_1      e_2      e_3      s_1      s_2      s_3 
-0.0000  0.0000  0.0000 -0.0000 -0.0071  0.0002 -0.0020 -299.4445 518.6530  0.0000  0.0000 -0.0000 299.4410 -0.0020 -299.4479
Element 4
e_11      e_22      e_33     e_12      s_11       s_22       s_33      s_12      VM      e_1      e_2      e_3      s_1      s_2      s_3 
-0.0000  0.0000  0.0000 -0.0000 -127.8956 15.2173 -33.8035 -181.4670 338.6143  0.0000  0.0000 -0.0000 138.7265 -33.8035 -251.4047
Element 5
e_11      e_22      e_33     e_12      s_11       s_22       s_33      s_12      VM      e_1      e_2      e_3      s_1      s_2      s_3 
 0.0001 -0.0001  0.0000 -0.0000 1420.3252 -118.7771 390.4644 -157.4495 1385.1928  0.0001  0.0000 -0.0001 1436.2670 390.4644 -134.7190
Element 6
e_11      e_22      e_33     e_12      s_11       s_22       s_33      s_12      VM      e_1      e_2      e_3      s_1      s_2      s_3 
-0.0001  0.0000  0.0000 -0.0000 -1209.7534  8.2356 -360.4553 -175.5358 1123.7468  0.0001  0.0000 -0.0001 33.0290 -360.4553 -1234.5468
Element 7
e_11      e_22      e_33     e_12      s_11       s_22       s_33      s_12      VM      e_1      e_2      e_3      s_1      s_2      s_3 
 0.0000 -0.0000  0.0000 -0.0000  0.0275  0.0014  0.0087 -298.9154 517.7366  0.0000  0.0000 -0.0000 298.9298  0.0087 -298.9009
Element 8
e_11      e_22      e_33     e_12      s_11       s_22       s_33      s_12      VM      e_1      e_2      e_3      s_1      s_2      s_3 
-0.0000  0.0000  0.0000 -0.0000 -442.2708 -0.9041 -132.9525 -165.1825 485.6082  0.0000  0.0000 -0.0000 54.0688 -132.9525 -497.2437
Element 9
e_11      e_22      e_33     e_12      s_11       s_22       s_33      s_12      VM      e_1      e_2      e_3      s_1      s_2      s_3 
-0.0001  0.0001  0.0000 -0.0000 -1420.3180 118.7784 -390.4619 -157.4527 1385.1887  0.0001  0.0000 -0.0001 134.7210 -390.4619 -1436.2606
Element 10
e_11      e_22      e_33     e_12      s_11       s_22       s_33      s_12      VM      e_1      e_2      e_3      s_1      s_2      s_3 
-0.0000  0.0000  0.0000 -0.0000 -0.0026  0.0013 -0.0004 -296.4798 513.5181  0.0000  0.0000 -0.0000 296.4792 -0.0004 -296.4805
Element 11
e_11      e_22      e_33     e_12      s_11       s_22       s_33      s_12      VM      e_1      e_2      e_3      s_1      s_2      s_3 
 0.0000 -0.0000  0.0000 -0.0000 127.9034 -15.2203 33.8049 -181.4611 338.6083  0.0000  0.0000 -0.0000 251.4037 33.8049 -138.7206
Element 12
e_11      e_22      e_33     e_12      s_11       s_22       s_33      s_12      VM      e_1      e_2      e_3      s_1      s_2      s_3 
 0.0001 -0.0000  0.0000 -0.0000 1209.7121 -8.2318 360.4441 -175.5434 1123.7123  0.0001  0.0000 -0.0001 1234.5085 360.4441 -33.0282
Element 13
e_11      e_22      e_33     e_12      s_11       s_22       s_33      s_12      VM      e_1      e_2      e_3      s_1      s_2      s_3 
 0.0001 -0.0000  0.0000 -0.0000 940.9527 -5.2610 280.7075 -181.1068 897.1678  0.0001  0.0000 -0.0000 974.4322 280.7075 -38.7406
Element 14
e_11      e_22      e_33     e_12      s_11       s_22       s_33      s_12      VM      e_1      e_2      e_3      s_1      s_2      s_3 
-0.0000  0.0000  0.0000 -0.0000 -0.0917 -0.0012 -0.0279 -316.9643 548.9983  0.0000  0.0000 -0.0000 316.9178 -0.0279 -317.0108
Element 15
e_11      e_22      e_33     e_12      s_11       s_22       s_33      s_12      VM      e_1      e_2      e_3      s_1      s_2      s_3 
 0.0000 -0.0000  0.0000 -0.0000  0.0274  0.0096  0.0111 -365.8451 633.6623  0.0000  0.0000 -0.0000 365.8636  0.0111 -365.8266
Element 16
e_11      e_22      e_33     e_12      s_11       s_22       s_33      s_12      VM      e_1      e_2      e_3      s_1      s_2      s_3 
-0.0000  0.0000  0.0000 -0.0000 -0.0147 -0.0028 -0.0053 -312.0212 540.4366  0.0000  0.0000 -0.0000 312.0125 -0.0053 -312.0300
Element 17
e_11      e_22      e_33     e_12      s_11       s_22       s_33      s_12      VM      e_1      e_2      e_3      s_1      s_2      s_3 
-0.0000  0.0000  0.0000 -0.0000 -214.7711 -5.6497 -66.1263 -267.3758 499.2111  0.0000  0.0000 -0.0000 176.8832 -66.1263 -397.3041
Element 18
e_11      e_22      e_33     e_12      s_11       s_22       s_33      s_12      VM      e_1      e_2      e_3      s_1      s_2      s_3 
-0.0001  0.0000  0.0000 -0.0000 -940.9090  5.2637 -280.6936 -181.1082 897.1342  0.0000  0.0000 -0.0001 38.7451 -280.6936 -974.3904
Element 19
e_11      e_22      e_33     e_12      s_11       s_22       s_33      s_12      VM      e_1      e_2      e_3      s_1      s_2      s_3 
 0.0001 -0.0000  0.0000 -0.0000 772.3730 -17.8392 226.3601 -177.4507 765.2226  0.0001  0.0000 -0.0000 810.3923 226.3601 -55.8585
Element 20
e_11      e_22      e_33     e_12      s_11       s_22       s_33      s_12      VM      e_1      e_2      e_3      s_1      s_2      s_3 
 0.0000 -0.0000  0.0000 -0.0000 442.3486  0.9058 132.9763 -165.1674 485.6476  0.0000  0.0000 -0.0000 497.3049 132.9763 -54.0506
