********************************************************
*                      VEMLab 2.2                      *
*      http://camlab.cl/research/software/vemlab       *
*------------------------------------------------------*
*               Linear Elastostatics                   *
********************************************************

Mesh filename: rigidrotation_patch_test_4poly_elems.txt
Method: VEM2D
Date: 7-10-2018
Time: 16:31 hrs

Nodal Displacements: 
 Node      Coords         u1       u2 
1 -0.50000000 -0.50000000 0.50000000 -0.20710678
2 0.00000000 -0.50000000 0.35355339 0.14644661
3 0.50000000 -0.50000000 0.20710678 0.50000000
4 -0.50000000 0.00000000 0.14644661 -0.35355339
5 0.00000000 0.00000000 -0.00000000 0.00000000
6 0.50000000 0.00000000 -0.14644661 0.35355339
7 -0.50000000 0.50000000 -0.20710678 -0.50000000
8 0.00000000 0.50000000 -0.35355339 -0.14644661
9 0.50000000 0.50000000 -0.50000000 0.20710678
Strains, Stresses, Principal Strains and Principal Stresses: 
(quantities are constant in the element)

Element 1
e_11      e_22      e_33     e_12      s_11       s_22       s_33      s_12      VM      e_1      e_2      e_3      s_1      s_2      s_3 
-0.2929 -0.2929  0.0000  0.0000 -5632561.9003 -5632561.9003 -3379537.1402  0.0000 2253024.7601  0.0000 -0.2929 -0.2929 -3379537.1402 -5632561.9003 -5632561.9003
Element 2
e_11      e_22      e_33     e_12      s_11       s_22       s_33      s_12      VM      e_1      e_2      e_3      s_1      s_2      s_3 
-0.2929 -0.2929  0.0000  0.0000 -5632561.9003 -5632561.9003 -3379537.1402  0.0000 2253024.7601  0.0000 -0.2929 -0.2929 -3379537.1402 -5632561.9003 -5632561.9003
Element 3
e_11      e_22      e_33     e_12      s_11       s_22       s_33      s_12      VM      e_1      e_2      e_3      s_1      s_2      s_3 
-0.2929 -0.2929  0.0000  0.0000 -5632561.9003 -5632561.9003 -3379537.1402  0.0000 2253024.7601  0.0000 -0.2929 -0.2929 -3379537.1402 -5632561.9003 -5632561.9003
Element 4
e_11      e_22      e_33     e_12      s_11       s_22       s_33      s_12      VM      e_1      e_2      e_3      s_1      s_2      s_3 
-0.2929 -0.2929  0.0000  0.0000 -5632561.9003 -5632561.9003 -3379537.1402  0.0000 2253024.7601  0.0000 -0.2929 -0.2929 -3379537.1402 -5632561.9003 -5632561.9003
