********************************************************
*                      VEMLab 1.0                      *
*      http://camlab.cl/research/software/vemlab       *
*------------------------------------------------------*
*               Linear Elastostatics                   *
********************************************************

Mesh filename: cantilever_beam_25poly_elems.txt
Method: VEM2D
Date: 2-1-2018
Time: 13:17 hrs

Nodal Displacements: 
 Node      Coords         u1       u2 
1 8.00000000 -2.00000000 -0.00074504 -0.00229547
2 6.87591700 -2.00000000 -0.00073582 -0.00183676
3 7.33453005 -0.63572414 -0.00022799 -0.00202276
4 6.78435331 -1.19459926 -0.00042407 -0.00179097
5 8.00000000 -0.64756195 -0.00023024 -0.00231716
6 8.00000000 0.71954745 0.00025608 -0.00231745
7 8.00000000 2.00000000 0.00074702 -0.00229999
8 5.53877709 -2.00000000 -0.00066921 -0.00130046
9 5.98120651 -0.83689745 -0.00027847 -0.00145464
10 5.57012813 -1.12844912 -0.00036290 -0.00129447
11 6.03592942 -0.16166655 -0.00005405 -0.00147220
12 6.94680896 0.70641832 0.00024922 -0.00185549
13 6.77116276 0.15792575 0.00005452 -0.00178032
14 6.84042451 0.87323907 0.00030558 -0.00181122
15 7.01876336 2.00000000 0.00073897 -0.00189664
16 4.35385651 -2.00000000 -0.00056731 -0.00087447
17 3.23550310 -2.00000000 -0.00043602 -0.00053965
18 4.77146289 -0.76255839 -0.00021802 -0.00098639
19 4.35288881 -1.09594328 -0.00029458 -0.00084657
20 5.43662052 0.31041725 0.00009613 -0.00123158
21 4.76899673 -0.18125667 -0.00005215 -0.00097989
22 5.43669852 0.73954639 0.00023213 -0.00123445
23 5.82611932 1.11629903 0.00036863 -0.00139514
24 5.79296025 2.00000000 0.00068859 -0.00139868
25 -0.00000000 -2.00000000 0.00013975 -0.00011700
26 3.49130711 -0.79055014 -0.00016989 -0.00056490
27 3.17845071 -1.10277809 -0.00021924 -0.00048677
28 2.26299472 -0.94438100 -0.00011949 -0.00026208
29 1.97245727 -2.00000000 -0.00025212 -0.00025541
30 1.23842630 -2.00000000 -0.00010486 -0.00015278
31 3.45841290 -0.22172857 -0.00004740 -0.00054683
32 4.02392259 0.28254469 0.00007043 -0.00072114
33 4.01097861 0.72960380 0.00018128 -0.00072195
34 4.60326909 1.18484703 0.00033627 -0.00093336
35 4.60611908 2.00000000 0.00059467 -0.00095763
36 1.01277353 -1.02997828 -0.00002233 -0.00008015
37 -0.00000000 -0.93487932 0.00008551 -0.00002556
38 2.04555920 -0.59729790 -0.00006771 -0.00020753
39 2.62574428 0.20067953 0.00003259 -0.00032372
40 1.44220847 -0.49116654 -0.00002595 -0.00010564
41 2.53215834 0.64117658 0.00009231 -0.00030778
42 3.37142234 1.15181705 0.00024649 -0.00053990
43 3.33643126 2.00000000 0.00044816 -0.00056264
44 1.17201515 0.03085548 0.00000066 -0.00007083
45 -0.00000000 0.00711910 -0.00000069 -0.00000000
46 1.35805476 0.69434996 0.00003015 -0.00010298
47 2.20993428 0.86062597 0.00010621 -0.00024713
48 2.17417345 2.00000000 0.00027462 -0.00029482
49 1.04928346 1.05448061 0.00002402 -0.00008463
50 -0.00000000 0.96108784 -0.00008758 -0.00002702
51 1.15885623 2.00000000 0.00009574 -0.00014895
52 -0.00000000 2.00000000 -0.00013975 -0.00011700
Strains, Stresses, Principal Strains and Principal Stresses: 
(quantities are constant in the element)

Element 1
e_11      e_22      e_33     e_12      s_11       s_22       s_33      s_12      VM      e_1      e_2      e_3      s_1      s_2      s_3 
-0.0002  0.0001  0.0000 -0.0000 -1668.0486 126.0763 -462.5917 -310.6524 1672.9570  0.0001  0.0000 -0.0002 178.3431 -462.5917 -1720.3153
Element 2
e_11      e_22      e_33     e_12      s_11       s_22       s_33      s_12      VM      e_1      e_2      e_3      s_1      s_2      s_3 
 0.0001 -0.0000  0.0000 -0.0000 935.8976 -13.1609 276.8210 -322.9896 1011.2163  0.0001  0.0000 -0.0000 1035.3894 276.8210 -112.6528
Element 3
e_11      e_22      e_33     e_12      s_11       s_22       s_33      s_12      VM      e_1      e_2      e_3      s_1      s_2      s_3 
-0.0001  0.0001  0.0000 -0.0000 -1268.8854 18.3175 -375.1703 -285.2538 1244.7227  0.0001  0.0000 -0.0001 78.6995 -375.1703 -1329.2673
Element 4
e_11      e_22      e_33     e_12      s_11       s_22       s_33      s_12      VM      e_1      e_2      e_3      s_1      s_2      s_3 
 0.0001 -0.0000  0.0000 -0.0000 644.4163 -0.8710 193.0636 -302.9399 777.2906  0.0001  0.0000 -0.0000 764.3464 193.0636 -120.8011
Element 5
e_11      e_22      e_33     e_12      s_11       s_22       s_33      s_12      VM      e_1      e_2      e_3      s_1      s_2      s_3 
-0.0000  0.0000  0.0000 -0.0000 -426.7965 11.6361 -124.5481 -327.8708 688.1566  0.0000  0.0000 -0.0000 186.8245 -124.5481 -601.9849
Element 6
e_11      e_22      e_33     e_12      s_11       s_22       s_33      s_12      VM      e_1      e_2      e_3      s_1      s_2      s_3 
 0.0000 -0.0000  0.0000 -0.0000 382.9633  2.9183 115.7645 -287.8345 602.3519  0.0000  0.0000 -0.0000 537.8426 115.7645 -151.9610
Element 7
e_11      e_22      e_33     e_12      s_11       s_22       s_33      s_12      VM      e_1      e_2      e_3      s_1      s_2      s_3 
-0.0001  0.0000  0.0000 -0.0000 -1243.1280 -21.4393 -379.3702 -368.8382 1261.5398  0.0001  0.0000 -0.0001 81.2796 -379.3702 -1345.8468
Element 8
e_11      e_22      e_33     e_12      s_11       s_22       s_33      s_12      VM      e_1      e_2      e_3      s_1      s_2      s_3 
-0.0001  0.0000  0.0000 -0.0000 -693.2476  9.7380 -205.0529 -329.3775 845.4570  0.0000  0.0000 -0.0001 139.9471 -205.0529 -823.4567
Element 9
e_11      e_22      e_33     e_12      s_11       s_22       s_33      s_12      VM      e_1      e_2      e_3      s_1      s_2      s_3 
-0.0000  0.0000  0.0000 -0.0000 -185.4535  6.3416 -53.7336 -567.8830 998.1712  0.0000  0.0000 -0.0000 486.3672 -53.7336 -665.4791
Element 10
e_11      e_22      e_33     e_12      s_11       s_22       s_33      s_12      VM      e_1      e_2      e_3      s_1      s_2      s_3 
 0.0000 -0.0000  0.0000 -0.0000 179.5684 -8.6596 51.2726 -617.9876 1083.2667  0.0000  0.0000 -0.0000 710.5673 51.2726 -539.6585
Element 11
e_11      e_22      e_33     e_12      s_11       s_22       s_33      s_12      VM      e_1      e_2      e_3      s_1      s_2      s_3 
-0.0000  0.0000  0.0000 -0.0000 -530.7451 13.2246 -155.2561 -619.7965 1176.8957  0.0000  0.0000 -0.0001 418.0879 -155.2561 -935.6084
Element 12
e_11      e_22      e_33     e_12      s_11       s_22       s_33      s_12      VM      e_1      e_2      e_3      s_1      s_2      s_3 
-0.0000  0.0000  0.0000 -0.0000 -277.9078 13.0868 -79.4463 -581.5197 1039.6197  0.0000  0.0000 -0.0000 467.0348 -79.4463 -731.8558
Element 13
e_11      e_22      e_33     e_12      s_11       s_22       s_33      s_12      VM      e_1      e_2      e_3      s_1      s_2      s_3 
 0.0000  0.0000  0.0000 -0.0000 116.9824 73.3426 57.0975 -345.8795 601.4775  0.0000  0.0000 -0.0000 441.7296 57.0975 -251.4046
Element 14
e_11      e_22      e_33     e_12      s_11       s_22       s_33      s_12      VM      e_1      e_2      e_3      s_1      s_2      s_3 
-0.0000  0.0000  0.0000 -0.0000 -451.5946 11.3075 -132.0861 -580.5235 1086.0411  0.0000  0.0000 -0.0001 404.8181 -132.0861 -845.1052
Element 15
e_11      e_22      e_33     e_12      s_11       s_22       s_33      s_12      VM      e_1      e_2      e_3      s_1      s_2      s_3 
 0.0000 -0.0000  0.0000 -0.0000 254.7729  4.3714 77.7433 -568.0356 1008.8137  0.0000  0.0000 -0.0000 711.2419 77.7433 -452.0975
Element 16
e_11      e_22      e_33     e_12      s_11       s_22       s_33      s_12      VM      e_1      e_2      e_3      s_1      s_2      s_3 
 0.0001 -0.0001  0.0000 -0.0000 1349.9943 -2.9278 404.1199 -342.9275 1340.9624  0.0001  0.0000 -0.0001 1431.9519 404.1199 -84.8854
Element 17
e_11      e_22      e_33     e_12      s_11       s_22       s_33      s_12      VM      e_1      e_2      e_3      s_1      s_2      s_3 
-0.0000  0.0000  0.0000 -0.0000 -126.7340 -2.6934 -38.8282 -550.8774 960.5246  0.0000  0.0000 -0.0000 489.6440 -38.8282 -619.0714
Element 18
e_11      e_22      e_33     e_12      s_11       s_22       s_33      s_12      VM      e_1      e_2      e_3      s_1      s_2      s_3 
 0.0001 -0.0000  0.0000 -0.0000 1164.9199 -17.7835 344.1409 -364.1710 1224.5771  0.0001  0.0000 -0.0001 1268.0589 344.1409 -120.9225
Element 19
e_11      e_22      e_33     e_12      s_11       s_22       s_33      s_12      VM      e_1      e_2      e_3      s_1      s_2      s_3 
 0.0000 -0.0000  0.0000 -0.0000 346.1405 -2.7919 103.0046 -555.9996 1011.6509  0.0001  0.0000 -0.0000 754.4041 103.0046 -411.0555
Element 20
e_11      e_22      e_33     e_12      s_11       s_22       s_33      s_12      VM      e_1      e_2      e_3      s_1      s_2      s_3 
 0.0000 -0.0000  0.0000 -0.0000 147.1336 -3.3261 43.1422 -580.1570 1013.6825  0.0000  0.0000 -0.0000 656.9180 43.1422 -513.1105
Element 21
e_11      e_22      e_33     e_12      s_11       s_22       s_33      s_12      VM      e_1      e_2      e_3      s_1      s_2      s_3 
 0.0000 -0.0000  0.0000 -0.0000 19.2350 -3.2378  4.7992 -634.7416 1099.5816  0.0000  0.0000 -0.0000 642.8396  4.7992 -626.8424
Element 22
e_11      e_22      e_33     e_12      s_11       s_22       s_33      s_12      VM      e_1      e_2      e_3      s_1      s_2      s_3 
-0.0000 -0.0000  0.0000 -0.0000 -136.8364 -93.1132 -68.9849 -339.8842 591.7032  0.0000  0.0000 -0.0000 225.6117 -68.9849 -455.5614
Element 23
e_11      e_22      e_33     e_12      s_11       s_22       s_33      s_12      VM      e_1      e_2      e_3      s_1      s_2      s_3 
-0.0001  0.0000  0.0000 -0.0000 -951.0755 14.2206 -281.0565 -319.7294 1020.1156  0.0000  0.0000 -0.0001 110.5164 -281.0565 -1047.3713
Element 24
e_11      e_22      e_33     e_12      s_11       s_22       s_33      s_12      VM      e_1      e_2      e_3      s_1      s_2      s_3 
 0.0001 -0.0000  0.0000 -0.0000 568.2548 -21.5644 164.0071 -633.9533 1215.9607  0.0001  0.0000 -0.0000 972.5365 164.0071 -425.8462
Element 25
e_11      e_22      e_33     e_12      s_11       s_22       s_33      s_12      VM      e_1      e_2      e_3      s_1      s_2      s_3 
 0.0002 -0.0001  0.0000 -0.0000 1678.5600 -112.4383 469.8365 -278.3697 1654.1870  0.0002  0.0000 -0.0001 1720.8286 469.8365 -154.7069
