********************************************************
*                      VEMLab 2.0.3                      *
*      http://camlab.cl/research/software/vemlab       *
*------------------------------------------------------*
*               Linear Elastostatics                   *
********************************************************

Mesh filename: patch_test_50poly_elems.txt
Method: VEM2D
Date: 17-5-2018
Time: 15:28 hrs

Nodal Displacements: 
 Node      Coords         u1       u2 
1 0.00000000 0.00000000 0.00000000 0.00000000
2 0.11908909 0.00000000 0.11908909 0.11908909
3 0.00000000 0.16368106 0.00000000 0.16368106
4 0.26277815 0.00000000 0.26277815 0.26277815
5 0.13229306 0.15972185 0.13229306 0.29201492
6 0.25848813 0.12399473 0.25848813 0.38248286
7 0.15486801 0.25732532 0.15486801 0.41219333
8 0.08727089 0.32869014 0.08727089 0.41596103
9 0.00000000 0.32555298 0.00000000 0.32555298
10 1.00000000 -0.00000000 1.00000000 1.00000000
11 0.39974644 0.00000000 0.39974644 0.39974644
12 0.68145774 0.00000000 0.68145774 0.68145774
13 0.83820389 0.00000000 0.83820389 0.83820389
14 0.53763839 0.00000000 0.53763839 0.53763839
15 0.30604307 0.16150656 0.30604307 0.46754964
16 0.39831062 0.12776345 0.39831062 0.52607407
17 0.29977645 0.25849077 0.29977645 0.55826722
18 0.24698878 0.28990940 0.24698878 0.53689818
19 0.24041961 0.40789759 0.24041961 0.64831719
20 0.14936788 0.42582900 0.14936788 0.57519689
21 0.11238747 0.49408601 0.11238747 0.60647348
22 0.00000000 0.49694527 0.00000000 0.49694527
23 0.00000000 0.65890054 0.00000000 0.65890054
24 0.83949602 0.10077470 0.83949602 0.94027071
25 0.88190041 0.13644677 0.88190041 1.01834719
26 1.00000000 0.11553181 1.00000000 1.11553181
27 0.45730726 0.16471106 0.45730726 0.62201832
28 0.54093755 0.12956065 0.54093755 0.67049820
29 0.73538509 0.14911085 0.73538509 0.88449594
30 0.59371371 0.15788835 0.59371371 0.75160206
31 0.68650859 0.11800645 0.68650859 0.80451504
32 0.38900522 0.30421958 0.38900522 0.69322480
33 0.45376226 0.26647497 0.45376226 0.72023723
34 0.28425410 0.44035225 0.28425410 0.72460635
35 0.38562114 0.39852787 0.38562114 0.78414901
36 0.28831832 0.52640118 0.28831832 0.81471950
37 0.21672121 0.58147135 0.21672121 0.79819256
38 0.15892238 0.57251080 0.15892238 0.73143319
39 0.08895773 0.66312692 0.08895773 0.75208465
40 0.14102789 0.73679927 0.14102789 0.87782716
41 0.09358438 0.83264570 0.09358438 0.92623008
42 -0.00000000 0.83969012 -0.00000000 0.83969012
43 0.00000000 1.00000000 0.00000000 1.00000000
44 0.74645079 0.23081810 0.74645079 0.97726889
45 0.84492235 0.27131344 0.84492235 1.11623579
46 0.87567312 0.24788881 0.87567312 1.12356193
47 1.00000000 0.27054414 1.00000000 1.27054414
48 0.60526769 0.27410601 0.60526769 0.87937369
49 0.54389106 0.31102884 0.54389106 0.85491990
50 0.67490273 0.29601718 0.67490273 0.97091991
51 0.53715388 0.40965662 0.53715388 0.94681050
52 0.44640910 0.44334744 0.44640910 0.88975654
53 0.43687778 0.54512546 0.43687778 0.98200324
54 0.37474693 0.57156095 0.37474693 0.94630788
55 0.35555377 0.68682277 0.35555377 1.04237654
56 0.26354500 0.69900565 0.26354500 0.96255065
57 0.23577680 0.73511765 0.23577680 0.97089444
58 0.26756097 0.84893021 0.26756097 1.11649118
59 0.15322920 0.89171389 0.15322920 1.04494309
60 0.14400001 1.00000000 0.14400001 1.14400001
61 0.70625454 0.37899996 0.70625454 1.08525450
62 0.83772091 0.36672496 0.83772091 1.20444587
63 0.85560799 0.38953161 0.85560799 1.24513960
64 1.00000000 0.38219112 1.00000000 1.38219112
65 0.59712339 0.45544068 0.59712339 1.05256407
66 0.68245969 0.43311542 0.68245969 1.11557511
67 0.50728269 0.58835484 0.50728269 1.09563753
68 0.57913085 0.56226430 0.57913085 1.14139515
69 0.39945774 0.72333677 0.39945774 1.12279451
70 0.49600234 0.69969041 0.49600234 1.19569275
71 0.38900656 0.83236134 0.38900656 1.22136790
72 0.29622176 0.86491012 0.29622176 1.16113188
73 0.30696499 1.00000000 0.30696499 1.30696499
74 0.74404489 0.51461569 0.74404489 1.25866057
75 0.84594677 0.49018905 0.84594677 1.33613582
76 0.87782209 0.52103891 0.87782209 1.39886100
77 1.00000000 0.50530482 1.00000000 1.50530482
78 0.72155223 0.58454300 0.72155223 1.30609523
79 0.65246281 0.61256284 0.65246281 1.26502566
80 0.63887640 0.70788533 0.63887640 1.34676174
81 0.54605964 0.73824569 0.54605964 1.28430533
82 0.54025256 0.84043332 0.54025256 1.38068588
83 0.44845674 0.87300274 0.44845674 1.32145948
84 0.44359863 1.00000000 0.44359863 1.44359863
85 0.81460364 0.66616378 0.81460364 1.48076742
86 0.87268570 0.62092550 0.87268570 1.49361120
87 1.00000000 0.66082561 1.00000000 1.66082561
88 0.69757590 0.75680913 0.69757590 1.45438503
89 0.80952494 0.70587675 0.80952494 1.51540169
90 0.69629504 0.84319571 0.69629504 1.53949075
91 0.59142313 0.87791036 0.59142313 1.46933350
92 0.59077432 1.00000000 0.59077432 1.59077432
93 0.85706642 0.76724093 0.85706642 1.62430735
94 1.00000000 0.73867517 1.00000000 1.73867517
95 0.73259402 0.87381624 0.73259402 1.60641026
96 0.84657658 0.85296481 0.84657658 1.69954140
97 0.73102874 1.00000000 0.73102874 1.73102874
98 0.87046891 0.87925943 0.87046891 1.74972834
99 1.00000000 0.87397855 1.00000000 1.87397855
100 0.86363925 1.00000000 0.86363925 1.86363925
101 1.00000000 1.00000000 1.00000000 2.00000000
Strains, Stresses, Principal Strains and Principal Stresses: 
(quantities are constant in the element)

Element 1
e_11      e_22      e_33     e_12      s_11       s_22       s_33      s_12      VM      e_1      e_2      e_3      s_1      s_2      s_3 
 1.0000  1.0000  0.0000  0.5000 19230769.2308 19230769.2308 11538461.5385 3846153.8462 10175966.5810  1.5000  0.5000  0.0000 23076923.0769 15384615.3846 11538461.5385
Element 2
e_11      e_22      e_33     e_12      s_11       s_22       s_33      s_12      VM      e_1      e_2      e_3      s_1      s_2      s_3 
 1.0000  1.0000  0.0000  0.5000 19230769.2308 19230769.2308 11538461.5385 3846153.8462 10175966.5810  1.5000  0.5000  0.0000 23076923.0769 15384615.3846 11538461.5385
Element 3
e_11      e_22      e_33     e_12      s_11       s_22       s_33      s_12      VM      e_1      e_2      e_3      s_1      s_2      s_3 
 1.0000  1.0000  0.0000  0.5000 19230769.2308 19230769.2308 11538461.5385 3846153.8462 10175966.5810  1.5000  0.5000  0.0000 23076923.0769 15384615.3846 11538461.5385
Element 4
e_11      e_22      e_33     e_12      s_11       s_22       s_33      s_12      VM      e_1      e_2      e_3      s_1      s_2      s_3 
 1.0000  1.0000  0.0000  0.5000 19230769.2308 19230769.2308 11538461.5385 3846153.8462 10175966.5810  1.5000  0.5000  0.0000 23076923.0769 15384615.3846 11538461.5385
Element 5
e_11      e_22      e_33     e_12      s_11       s_22       s_33      s_12      VM      e_1      e_2      e_3      s_1      s_2      s_3 
 1.0000  1.0000  0.0000  0.5000 19230769.2308 19230769.2308 11538461.5385 3846153.8462 10175966.5810  1.5000  0.5000  0.0000 23076923.0769 15384615.3846 11538461.5385
Element 6
e_11      e_22      e_33     e_12      s_11       s_22       s_33      s_12      VM      e_1      e_2      e_3      s_1      s_2      s_3 
 1.0000  1.0000  0.0000  0.5000 19230769.2308 19230769.2308 11538461.5385 3846153.8462 10175966.5810  1.5000  0.5000  0.0000 23076923.0769 15384615.3846 11538461.5385
Element 7
e_11      e_22      e_33     e_12      s_11       s_22       s_33      s_12      VM      e_1      e_2      e_3      s_1      s_2      s_3 
 1.0000  1.0000  0.0000  0.5000 19230769.2308 19230769.2308 11538461.5385 3846153.8462 10175966.5810  1.5000  0.5000  0.0000 23076923.0769 15384615.3846 11538461.5385
Element 8
e_11      e_22      e_33     e_12      s_11       s_22       s_33      s_12      VM      e_1      e_2      e_3      s_1      s_2      s_3 
 1.0000  1.0000  0.0000  0.5000 19230769.2308 19230769.2308 11538461.5385 3846153.8462 10175966.5810  1.5000  0.5000  0.0000 23076923.0769 15384615.3846 11538461.5385
Element 9
e_11      e_22      e_33     e_12      s_11       s_22       s_33      s_12      VM      e_1      e_2      e_3      s_1      s_2      s_3 
 1.0000  1.0000  0.0000  0.5000 19230769.2308 19230769.2308 11538461.5385 3846153.8462 10175966.5810  1.5000  0.5000  0.0000 23076923.0769 15384615.3846 11538461.5385
Element 10
e_11      e_22      e_33     e_12      s_11       s_22       s_33      s_12      VM      e_1      e_2      e_3      s_1      s_2      s_3 
 1.0000  1.0000  0.0000  0.5000 19230769.2308 19230769.2308 11538461.5385 3846153.8462 10175966.5810  1.5000  0.5000  0.0000 23076923.0769 15384615.3846 11538461.5385
Element 11
e_11      e_22      e_33     e_12      s_11       s_22       s_33      s_12      VM      e_1      e_2      e_3      s_1      s_2      s_3 
 1.0000  1.0000  0.0000  0.5000 19230769.2308 19230769.2308 11538461.5385 3846153.8462 10175966.5810  1.5000  0.5000  0.0000 23076923.0769 15384615.3846 11538461.5385
Element 12
e_11      e_22      e_33     e_12      s_11       s_22       s_33      s_12      VM      e_1      e_2      e_3      s_1      s_2      s_3 
 1.0000  1.0000  0.0000  0.5000 19230769.2308 19230769.2308 11538461.5385 3846153.8462 10175966.5810  1.5000  0.5000  0.0000 23076923.0769 15384615.3846 11538461.5385
Element 13
e_11      e_22      e_33     e_12      s_11       s_22       s_33      s_12      VM      e_1      e_2      e_3      s_1      s_2      s_3 
 1.0000  1.0000  0.0000  0.5000 19230769.2308 19230769.2308 11538461.5385 3846153.8462 10175966.5810  1.5000  0.5000  0.0000 23076923.0769 15384615.3846 11538461.5385
Element 14
e_11      e_22      e_33     e_12      s_11       s_22       s_33      s_12      VM      e_1      e_2      e_3      s_1      s_2      s_3 
 1.0000  1.0000  0.0000  0.5000 19230769.2308 19230769.2308 11538461.5385 3846153.8462 10175966.5810  1.5000  0.5000  0.0000 23076923.0769 15384615.3846 11538461.5385
Element 15
e_11      e_22      e_33     e_12      s_11       s_22       s_33      s_12      VM      e_1      e_2      e_3      s_1      s_2      s_3 
 1.0000  1.0000  0.0000  0.5000 19230769.2308 19230769.2308 11538461.5385 3846153.8462 10175966.5810  1.5000  0.5000  0.0000 23076923.0769 15384615.3846 11538461.5385
Element 16
e_11      e_22      e_33     e_12      s_11       s_22       s_33      s_12      VM      e_1      e_2      e_3      s_1      s_2      s_3 
 1.0000  1.0000  0.0000  0.5000 19230769.2308 19230769.2308 11538461.5385 3846153.8462 10175966.5810  1.5000  0.5000  0.0000 23076923.0769 15384615.3846 11538461.5385
Element 17
e_11      e_22      e_33     e_12      s_11       s_22       s_33      s_12      VM      e_1      e_2      e_3      s_1      s_2      s_3 
 1.0000  1.0000  0.0000  0.5000 19230769.2308 19230769.2308 11538461.5385 3846153.8462 10175966.5810  1.5000  0.5000  0.0000 23076923.0769 15384615.3846 11538461.5385
Element 18
e_11      e_22      e_33     e_12      s_11       s_22       s_33      s_12      VM      e_1      e_2      e_3      s_1      s_2      s_3 
 1.0000  1.0000  0.0000  0.5000 19230769.2308 19230769.2308 11538461.5385 3846153.8462 10175966.5810  1.5000  0.5000  0.0000 23076923.0769 15384615.3846 11538461.5385
Element 19
e_11      e_22      e_33     e_12      s_11       s_22       s_33      s_12      VM      e_1      e_2      e_3      s_1      s_2      s_3 
 1.0000  1.0000  0.0000  0.5000 19230769.2308 19230769.2308 11538461.5385 3846153.8462 10175966.5810  1.5000  0.5000  0.0000 23076923.0769 15384615.3846 11538461.5385
Element 20
e_11      e_22      e_33     e_12      s_11       s_22       s_33      s_12      VM      e_1      e_2      e_3      s_1      s_2      s_3 
 1.0000  1.0000  0.0000  0.5000 19230769.2308 19230769.2308 11538461.5385 3846153.8462 10175966.5810  1.5000  0.5000  0.0000 23076923.0769 15384615.3846 11538461.5385
Element 21
e_11      e_22      e_33     e_12      s_11       s_22       s_33      s_12      VM      e_1      e_2      e_3      s_1      s_2      s_3 
 1.0000  1.0000  0.0000  0.5000 19230769.2308 19230769.2308 11538461.5385 3846153.8462 10175966.5810  1.5000  0.5000  0.0000 23076923.0769 15384615.3846 11538461.5385
Element 22
e_11      e_22      e_33     e_12      s_11       s_22       s_33      s_12      VM      e_1      e_2      e_3      s_1      s_2      s_3 
 1.0000  1.0000  0.0000  0.5000 19230769.2308 19230769.2308 11538461.5385 3846153.8462 10175966.5810  1.5000  0.5000  0.0000 23076923.0769 15384615.3846 11538461.5385
Element 23
e_11      e_22      e_33     e_12      s_11       s_22       s_33      s_12      VM      e_1      e_2      e_3      s_1      s_2      s_3 
 1.0000  1.0000  0.0000  0.5000 19230769.2308 19230769.2308 11538461.5385 3846153.8462 10175966.5810  1.5000  0.5000  0.0000 23076923.0769 15384615.3846 11538461.5385
Element 24
e_11      e_22      e_33     e_12      s_11       s_22       s_33      s_12      VM      e_1      e_2      e_3      s_1      s_2      s_3 
 1.0000  1.0000  0.0000  0.5000 19230769.2308 19230769.2308 11538461.5385 3846153.8462 10175966.5810  1.5000  0.5000  0.0000 23076923.0769 15384615.3846 11538461.5385
Element 25
e_11      e_22      e_33     e_12      s_11       s_22       s_33      s_12      VM      e_1      e_2      e_3      s_1      s_2      s_3 
 1.0000  1.0000  0.0000  0.5000 19230769.2308 19230769.2308 11538461.5385 3846153.8462 10175966.5810  1.5000  0.5000  0.0000 23076923.0769 15384615.3846 11538461.5385
Element 26
e_11      e_22      e_33     e_12      s_11       s_22       s_33      s_12      VM      e_1      e_2      e_3      s_1      s_2      s_3 
 1.0000  1.0000  0.0000  0.5000 19230769.2308 19230769.2308 11538461.5385 3846153.8462 10175966.5810  1.5000  0.5000  0.0000 23076923.0769 15384615.3846 11538461.5385
Element 27
e_11      e_22      e_33     e_12      s_11       s_22       s_33      s_12      VM      e_1      e_2      e_3      s_1      s_2      s_3 
 1.0000  1.0000  0.0000  0.5000 19230769.2308 19230769.2308 11538461.5385 3846153.8462 10175966.5810  1.5000  0.5000  0.0000 23076923.0769 15384615.3846 11538461.5385
Element 28
e_11      e_22      e_33     e_12      s_11       s_22       s_33      s_12      VM      e_1      e_2      e_3      s_1      s_2      s_3 
 1.0000  1.0000  0.0000  0.5000 19230769.2308 19230769.2308 11538461.5385 3846153.8462 10175966.5810  1.5000  0.5000  0.0000 23076923.0769 15384615.3846 11538461.5385
Element 29
e_11      e_22      e_33     e_12      s_11       s_22       s_33      s_12      VM      e_1      e_2      e_3      s_1      s_2      s_3 
 1.0000  1.0000  0.0000  0.5000 19230769.2308 19230769.2308 11538461.5385 3846153.8462 10175966.5810  1.5000  0.5000  0.0000 23076923.0769 15384615.3846 11538461.5385
Element 30
e_11      e_22      e_33     e_12      s_11       s_22       s_33      s_12      VM      e_1      e_2      e_3      s_1      s_2      s_3 
 1.0000  1.0000  0.0000  0.5000 19230769.2308 19230769.2308 11538461.5385 3846153.8462 10175966.5810  1.5000  0.5000  0.0000 23076923.0769 15384615.3846 11538461.5385
Element 31
e_11      e_22      e_33     e_12      s_11       s_22       s_33      s_12      VM      e_1      e_2      e_3      s_1      s_2      s_3 
 1.0000  1.0000  0.0000  0.5000 19230769.2308 19230769.2308 11538461.5385 3846153.8462 10175966.5810  1.5000  0.5000  0.0000 23076923.0769 15384615.3846 11538461.5385
Element 32
e_11      e_22      e_33     e_12      s_11       s_22       s_33      s_12      VM      e_1      e_2      e_3      s_1      s_2      s_3 
 1.0000  1.0000  0.0000  0.5000 19230769.2308 19230769.2308 11538461.5385 3846153.8462 10175966.5810  1.5000  0.5000  0.0000 23076923.0769 15384615.3846 11538461.5385
Element 33
e_11      e_22      e_33     e_12      s_11       s_22       s_33      s_12      VM      e_1      e_2      e_3      s_1      s_2      s_3 
 1.0000  1.0000  0.0000  0.5000 19230769.2308 19230769.2308 11538461.5385 3846153.8462 10175966.5810  1.5000  0.5000  0.0000 23076923.0769 15384615.3846 11538461.5385
Element 34
e_11      e_22      e_33     e_12      s_11       s_22       s_33      s_12      VM      e_1      e_2      e_3      s_1      s_2      s_3 
 1.0000  1.0000  0.0000  0.5000 19230769.2308 19230769.2308 11538461.5385 3846153.8462 10175966.5810  1.5000  0.5000  0.0000 23076923.0769 15384615.3846 11538461.5385
Element 35
e_11      e_22      e_33     e_12      s_11       s_22       s_33      s_12      VM      e_1      e_2      e_3      s_1      s_2      s_3 
 1.0000  1.0000  0.0000  0.5000 19230769.2308 19230769.2308 11538461.5385 3846153.8462 10175966.5810  1.5000  0.5000  0.0000 23076923.0769 15384615.3846 11538461.5385
Element 36
e_11      e_22      e_33     e_12      s_11       s_22       s_33      s_12      VM      e_1      e_2      e_3      s_1      s_2      s_3 
 1.0000  1.0000  0.0000  0.5000 19230769.2308 19230769.2308 11538461.5385 3846153.8462 10175966.5810  1.5000  0.5000  0.0000 23076923.0769 15384615.3846 11538461.5385
Element 37
e_11      e_22      e_33     e_12      s_11       s_22       s_33      s_12      VM      e_1      e_2      e_3      s_1      s_2      s_3 
 1.0000  1.0000  0.0000  0.5000 19230769.2308 19230769.2308 11538461.5385 3846153.8462 10175966.5810  1.5000  0.5000  0.0000 23076923.0769 15384615.3846 11538461.5385
Element 38
e_11      e_22      e_33     e_12      s_11       s_22       s_33      s_12      VM      e_1      e_2      e_3      s_1      s_2      s_3 
 1.0000  1.0000  0.0000  0.5000 19230769.2308 19230769.2308 11538461.5385 3846153.8462 10175966.5810  1.5000  0.5000  0.0000 23076923.0769 15384615.3846 11538461.5385
Element 39
e_11      e_22      e_33     e_12      s_11       s_22       s_33      s_12      VM      e_1      e_2      e_3      s_1      s_2      s_3 
 1.0000  1.0000  0.0000  0.5000 19230769.2308 19230769.2308 11538461.5385 3846153.8462 10175966.5810  1.5000  0.5000  0.0000 23076923.0769 15384615.3846 11538461.5385
Element 40
e_11      e_22      e_33     e_12      s_11       s_22       s_33      s_12      VM      e_1      e_2      e_3      s_1      s_2      s_3 
 1.0000  1.0000  0.0000  0.5000 19230769.2308 19230769.2308 11538461.5385 3846153.8462 10175966.5810  1.5000  0.5000  0.0000 23076923.0769 15384615.3846 11538461.5385
Element 41
e_11      e_22      e_33     e_12      s_11       s_22       s_33      s_12      VM      e_1      e_2      e_3      s_1      s_2      s_3 
 1.0000  1.0000  0.0000  0.5000 19230769.2308 19230769.2308 11538461.5385 3846153.8462 10175966.5810  1.5000  0.5000  0.0000 23076923.0769 15384615.3846 11538461.5385
Element 42
e_11      e_22      e_33     e_12      s_11       s_22       s_33      s_12      VM      e_1      e_2      e_3      s_1      s_2      s_3 
 1.0000  1.0000  0.0000  0.5000 19230769.2308 19230769.2308 11538461.5385 3846153.8462 10175966.5810  1.5000  0.5000  0.0000 23076923.0769 15384615.3846 11538461.5385
Element 43
e_11      e_22      e_33     e_12      s_11       s_22       s_33      s_12      VM      e_1      e_2      e_3      s_1      s_2      s_3 
 1.0000  1.0000  0.0000  0.5000 19230769.2308 19230769.2308 11538461.5385 3846153.8462 10175966.5810  1.5000  0.5000  0.0000 23076923.0769 15384615.3846 11538461.5385
Element 44
e_11      e_22      e_33     e_12      s_11       s_22       s_33      s_12      VM      e_1      e_2      e_3      s_1      s_2      s_3 
 1.0000  1.0000  0.0000  0.5000 19230769.2308 19230769.2308 11538461.5385 3846153.8462 10175966.5810  1.5000  0.5000  0.0000 23076923.0769 15384615.3846 11538461.5385
Element 45
e_11      e_22      e_33     e_12      s_11       s_22       s_33      s_12      VM      e_1      e_2      e_3      s_1      s_2      s_3 
 1.0000  1.0000  0.0000  0.5000 19230769.2308 19230769.2308 11538461.5385 3846153.8462 10175966.5810  1.5000  0.5000  0.0000 23076923.0769 15384615.3846 11538461.5385
Element 46
e_11      e_22      e_33     e_12      s_11       s_22       s_33      s_12      VM      e_1      e_2      e_3      s_1      s_2      s_3 
 1.0000  1.0000  0.0000  0.5000 19230769.2308 19230769.2308 11538461.5385 3846153.8462 10175966.5810  1.5000  0.5000  0.0000 23076923.0769 15384615.3846 11538461.5385
Element 47
e_11      e_22      e_33     e_12      s_11       s_22       s_33      s_12      VM      e_1      e_2      e_3      s_1      s_2      s_3 
 1.0000  1.0000  0.0000  0.5000 19230769.2308 19230769.2308 11538461.5385 3846153.8462 10175966.5810  1.5000  0.5000  0.0000 23076923.0769 15384615.3846 11538461.5385
Element 48
e_11      e_22      e_33     e_12      s_11       s_22       s_33      s_12      VM      e_1      e_2      e_3      s_1      s_2      s_3 
 1.0000  1.0000  0.0000  0.5000 19230769.2308 19230769.2308 11538461.5385 3846153.8462 10175966.5810  1.5000  0.5000  0.0000 23076923.0769 15384615.3846 11538461.5385
Element 49
e_11      e_22      e_33     e_12      s_11       s_22       s_33      s_12      VM      e_1      e_2      e_3      s_1      s_2      s_3 
 1.0000  1.0000  0.0000  0.5000 19230769.2308 19230769.2308 11538461.5385 3846153.8462 10175966.5810  1.5000  0.5000  0.0000 23076923.0769 15384615.3846 11538461.5385
Element 50
e_11      e_22      e_33     e_12      s_11       s_22       s_33      s_12      VM      e_1      e_2      e_3      s_1      s_2      s_3 
 1.0000  1.0000  0.0000  0.5000 19230769.2308 19230769.2308 11538461.5385 3846153.8462 10175966.5810  1.5000  0.5000  0.0000 23076923.0769 15384615.3846 11538461.5385
