********************************************************
*                      VEMLab 2.1                      *
*      http://camlab.cl/research/software/vemlab       *
*------------------------------------------------------*
*               Linear Elastostatics                   *
********************************************************

Mesh filename: rigidrotation_patch_test_20poly_elems.txt
Method: VEM2D
Date: 28-9-2018
Time: 17:12 hrs

Nodal Displacements: 
 Node      Coords         u1       u2 
1 0.00000000 0.00000000 0.00000000 -0.00000000
2 0.21762096 0.00000000 0.06373970 -0.15388125
3 0.22319224 0.21792183 0.21946550 -0.09399292
4 0.00000000 0.24023732 0.16987344 0.07036388
5 0.00000000 0.44883944 0.31737741 0.13146203
6 0.45645874 0.00000000 0.13369367 -0.32276507
7 0.72201494 0.00000000 0.21147328 -0.51054166
8 1.00000000 0.00000000 0.29289322 -0.70710678
9 0.26724949 0.25618421 0.25942516 -0.11393931
10 0.46232234 0.16492101 0.25202784 -0.27860702
11 0.28081455 0.35174747 0.33097170 -0.09554142
12 0.18071117 0.47681222 0.39008623 0.01187297
13 0.22573193 0.58607584 0.48053355 0.01204106
14 0.11397125 0.73407844 0.55245325 0.13441675
15 0.00000000 0.74029840 0.52347002 0.21682838
16 0.00000000 1.00000000 0.70710678 0.29289322
17 0.55176415 0.23926377 0.33079301 -0.32007744
18 0.72515482 0.15296319 0.32055424 -0.46796001
19 0.79425997 0.21387010 0.38386235 -0.49898551
20 1.00000000 0.16707265 0.41103142 -0.65817234
21 0.50000000 0.50000000 0.50000000 -0.20710678
22 0.55422207 0.34908548 0.40916860 -0.28964941
23 0.45588720 0.55158885 0.52355849 -0.16080430
24 0.35985343 0.62639112 0.54832404 -0.07098909
25 0.37470490 0.77411114 0.65712776 -0.03822447
26 0.24085310 0.85027250 0.67177769 0.07873019
27 0.22575112 1.00000000 0.77322775 0.13326307
28 0.72257833 0.43658541 0.52035080 -0.38306713
29 0.79532525 0.37168716 0.49576788 -0.45351523
30 1.00000000 0.41882347 0.58904613 -0.58443623
31 0.58862131 0.61996617 0.61078547 -0.23463423
32 0.72120836 0.54017417 0.59319785 -0.35175797
33 0.59326269 0.76385033 0.71388636 -0.19577349
34 0.48903332 0.83507418 0.73372116 -0.10121121
35 0.49408560 1.00000000 0.85182110 -0.05647806
36 0.80970915 0.61070103 0.66898916 -0.39368064
37 1.00000000 0.56366235 0.69146269 -0.54201390
38 0.74429813 0.82618535 0.80220114 -0.28431417
39 0.80359956 0.78004875 0.78694662 -0.33975971
40 0.74239152 1.00000000 0.92454822 -0.23205686
41 1.00000000 0.81784927 0.87119999 -0.46756428
42 1.00000000 1.00000000 1.00000000 -0.41421356
Strains, Stresses, Principal Strains and Principal Stresses: 
(quantities are constant in the element)

Element 1
e_11      e_22      e_33     e_12      s_11       s_22       s_33      s_12      VM      e_1      e_2      e_3      s_1      s_2      s_3 
 0.2929  0.2929  0.0000  0.0000 5632561.9003 5632561.9003 3379537.1402  0.0000 2253024.7601  0.2929  0.2929  0.0000 5632561.9003 5632561.9003 3379537.1402
Element 2
e_11      e_22      e_33     e_12      s_11       s_22       s_33      s_12      VM      e_1      e_2      e_3      s_1      s_2      s_3 
 0.2929  0.2929  0.0000  0.0000 5632561.9003 5632561.9003 3379537.1402  0.0000 2253024.7601  0.2929  0.2929  0.0000 5632561.9003 5632561.9003 3379537.1402
Element 3
e_11      e_22      e_33     e_12      s_11       s_22       s_33      s_12      VM      e_1      e_2      e_3      s_1      s_2      s_3 
 0.2929  0.2929  0.0000  0.0000 5632561.9003 5632561.9003 3379537.1402  0.0000 2253024.7601  0.2929  0.2929  0.0000 5632561.9003 5632561.9003 3379537.1402
Element 4
e_11      e_22      e_33     e_12      s_11       s_22       s_33      s_12      VM      e_1      e_2      e_3      s_1      s_2      s_3 
 0.2929  0.2929  0.0000  0.0000 5632561.9003 5632561.9003 3379537.1402  0.0000 2253024.7601  0.2929  0.2929  0.0000 5632561.9003 5632561.9003 3379537.1402
Element 5
e_11      e_22      e_33     e_12      s_11       s_22       s_33      s_12      VM      e_1      e_2      e_3      s_1      s_2      s_3 
 0.2929  0.2929  0.0000  0.0000 5632561.9003 5632561.9003 3379537.1402  0.0000 2253024.7601  0.2929  0.2929  0.0000 5632561.9003 5632561.9003 3379537.1402
Element 6
e_11      e_22      e_33     e_12      s_11       s_22       s_33      s_12      VM      e_1      e_2      e_3      s_1      s_2      s_3 
 0.2929  0.2929  0.0000  0.0000 5632561.9003 5632561.9003 3379537.1402  0.0000 2253024.7601  0.2929  0.2929  0.0000 5632561.9003 5632561.9003 3379537.1402
Element 7
e_11      e_22      e_33     e_12      s_11       s_22       s_33      s_12      VM      e_1      e_2      e_3      s_1      s_2      s_3 
 0.2929  0.2929  0.0000  0.0000 5632561.9003 5632561.9003 3379537.1402  0.0000 2253024.7601  0.2929  0.2929  0.0000 5632561.9003 5632561.9003 3379537.1402
Element 8
e_11      e_22      e_33     e_12      s_11       s_22       s_33      s_12      VM      e_1      e_2      e_3      s_1      s_2      s_3 
 0.2929  0.2929  0.0000  0.0000 5632561.9003 5632561.9003 3379537.1402  0.0000 2253024.7601  0.2929  0.2929  0.0000 5632561.9003 5632561.9003 3379537.1402
Element 9
e_11      e_22      e_33     e_12      s_11       s_22       s_33      s_12      VM      e_1      e_2      e_3      s_1      s_2      s_3 
 0.2929  0.2929  0.0000  0.0000 5632561.9003 5632561.9003 3379537.1402  0.0000 2253024.7601  0.2929  0.2929  0.0000 5632561.9003 5632561.9003 3379537.1402
Element 10
e_11      e_22      e_33     e_12      s_11       s_22       s_33      s_12      VM      e_1      e_2      e_3      s_1      s_2      s_3 
 0.2929  0.2929  0.0000  0.0000 5632561.9003 5632561.9003 3379537.1402  0.0000 2253024.7601  0.2929  0.2929  0.0000 5632561.9003 5632561.9003 3379537.1402
Element 11
e_11      e_22      e_33     e_12      s_11       s_22       s_33      s_12      VM      e_1      e_2      e_3      s_1      s_2      s_3 
 0.2929  0.2929  0.0000 -0.0000 5632561.9003 5632561.9003 3379537.1402 -0.0000 2253024.7601  0.2929  0.2929  0.0000 5632561.9003 5632561.9003 3379537.1402
Element 12
e_11      e_22      e_33     e_12      s_11       s_22       s_33      s_12      VM      e_1      e_2      e_3      s_1      s_2      s_3 
 0.2929  0.2929  0.0000 -0.0000 5632561.9003 5632561.9003 3379537.1402 -0.0000 2253024.7601  0.2929  0.2929  0.0000 5632561.9003 5632561.9003 3379537.1402
Element 13
e_11      e_22      e_33     e_12      s_11       s_22       s_33      s_12      VM      e_1      e_2      e_3      s_1      s_2      s_3 
 0.2929  0.2929  0.0000 -0.0000 5632561.9003 5632561.9003 3379537.1402 -0.0000 2253024.7601  0.2929  0.2929  0.0000 5632561.9003 5632561.9003 3379537.1402
Element 14
e_11      e_22      e_33     e_12      s_11       s_22       s_33      s_12      VM      e_1      e_2      e_3      s_1      s_2      s_3 
 0.2929  0.2929  0.0000  0.0000 5632561.9003 5632561.9003 3379537.1402  0.0000 2253024.7601  0.2929  0.2929  0.0000 5632561.9003 5632561.9003 3379537.1402
Element 15
e_11      e_22      e_33     e_12      s_11       s_22       s_33      s_12      VM      e_1      e_2      e_3      s_1      s_2      s_3 
 0.2929  0.2929  0.0000  0.0000 5632561.9003 5632561.9003 3379537.1402  0.0000 2253024.7601  0.2929  0.2929  0.0000 5632561.9003 5632561.9003 3379537.1402
Element 16
e_11      e_22      e_33     e_12      s_11       s_22       s_33      s_12      VM      e_1      e_2      e_3      s_1      s_2      s_3 
 0.2929  0.2929  0.0000  0.0000 5632561.9003 5632561.9003 3379537.1402  0.0000 2253024.7601  0.2929  0.2929  0.0000 5632561.9003 5632561.9003 3379537.1402
Element 17
e_11      e_22      e_33     e_12      s_11       s_22       s_33      s_12      VM      e_1      e_2      e_3      s_1      s_2      s_3 
 0.2929  0.2929  0.0000  0.0000 5632561.9003 5632561.9003 3379537.1402  0.0000 2253024.7601  0.2929  0.2929  0.0000 5632561.9003 5632561.9003 3379537.1402
Element 18
e_11      e_22      e_33     e_12      s_11       s_22       s_33      s_12      VM      e_1      e_2      e_3      s_1      s_2      s_3 
 0.2929  0.2929  0.0000  0.0000 5632561.9003 5632561.9003 3379537.1402  0.0000 2253024.7601  0.2929  0.2929  0.0000 5632561.9003 5632561.9003 3379537.1402
Element 19
e_11      e_22      e_33     e_12      s_11       s_22       s_33      s_12      VM      e_1      e_2      e_3      s_1      s_2      s_3 
 0.2929  0.2929  0.0000  0.0000 5632561.9003 5632561.9003 3379537.1402  0.0000 2253024.7601  0.2929  0.2929  0.0000 5632561.9003 5632561.9003 3379537.1402
Element 20
e_11      e_22      e_33     e_12      s_11       s_22       s_33      s_12      VM      e_1      e_2      e_3      s_1      s_2      s_3 
 0.2929  0.2929  0.0000  0.0000 5632561.9003 5632561.9003 3379537.1402  0.0000 2253024.7601  0.2929  0.2929  0.0000 5632561.9003 5632561.9003 3379537.1402
