********************************************************
*                      VEMLab 1.0                      *
*      http://camlab.cl/research/software/vemlab       *
*------------------------------------------------------*
*               Linear Elastostatics                   *
********************************************************

Mesh filename: cantilever_beam_t3_10x10elems.txt
Method: FEM2DT3
Date: 2-1-2018
Time: 17:31 hrs

Nodal Displacements: 
 Node      Coords         u1       u2 
1 -0.00000000 -1.20057321 0.00010510 -0.00004216
2 -0.00000000 0.41912677 -0.00004036 -0.00000514
3 0.00000000 -2.00000000 0.00013975 -0.00011700
4 0.00000000 2.00000000 -0.00013975 -0.00011700
5 0.00000000 1.21513145 -0.00010608 -0.00004319
6 0.00000000 -0.37644480 0.00003633 -0.00000415
7 0.67364574 -0.43506180 -0.00001543 -0.00006704
8 0.67917403 2.00000000 0.00016264 -0.00023064
9 0.72879977 -2.00000000 -0.00017764 -0.00023800
10 0.74282230 1.15673599 0.00007749 -0.00013204
11 0.92807800 0.36574595 0.00003363 -0.00012625
12 0.93558279 -1.21840297 -0.00013797 -0.00018144
13 1.36493981 2.00000000 0.00044920 -0.00041799
14 1.46556988 -0.41935527 -0.00008396 -0.00029656
15 1.51984173 -2.00000000 -0.00051467 -0.00047453
16 1.52802267 1.16473216 0.00026599 -0.00036979
17 1.82795327 0.37407606 0.00010244 -0.00044642
18 1.83437174 -1.20577945 -0.00034988 -0.00050043
19 2.08784247 2.00000000 0.00072729 -0.00071491
20 2.30098171 -0.41293719 -0.00014748 -0.00068122
21 2.33718130 -2.00000000 -0.00082238 -0.00084248
22 2.34383098 1.17182175 0.00044476 -0.00074773
23 2.70478527 0.37834575 0.00016116 -0.00091182
24 2.70845246 -1.20272330 -0.00053303 -0.00095986
25 2.84076828 2.00000000 0.00098594 -0.00112429
26 3.14898280 -0.41046721 -0.00020377 -0.00119898
27 3.16636506 -2.00000000 -0.00109181 -0.00133316
28 3.17028037 1.17636545 0.00060307 -0.00125041
29 3.56948947 0.38069020 0.00021054 -0.00149588
30 3.57064254 -1.20197034 -0.00068795 -0.00153582
31 3.61162626 2.00000000 0.00121513 -0.00163701
32 4.00000000 1.17799809 0.00073678 -0.00185832
33 4.00000000 -0.40972898 -0.00025173 -0.00182777
34 4.00000000 -2.00000000 -0.00131961 -0.00192955
35 4.38837374 2.00000000 0.00140871 -0.00223528
36 4.42935746 -1.20197034 -0.00081558 -0.00221103
37 4.43051053 0.38069020 0.00025009 -0.00218007
38 4.82971963 1.17636545 0.00084353 -0.00255166
39 4.83363494 -2.00000000 -0.00150408 -0.00261189
40 4.85101720 -0.41046721 -0.00029156 -0.00254665
41 5.15923172 2.00000000 0.00156360 -0.00289582
42 5.29154754 -1.20272330 -0.00091677 -0.00297109
43 5.29521473 0.37834575 0.00027924 -0.00294991
44 5.65616902 1.17182175 0.00092240 -0.00330975
45 5.66281869 -2.00000000 -0.00164410 -0.00335777
46 5.69901829 -0.41293719 -0.00032379 -0.00333329
47 5.91215753 2.00000000 0.00167907 -0.00359213
48 6.16562826 -1.20577945 -0.00099302 -0.00380448
49 6.17204673 0.37407606 0.00029784 -0.00379455
50 6.47197733 1.16473216 0.00097348 -0.00410778
51 6.48015827 -2.00000000 -0.00173900 -0.00413985
52 6.53443011 -0.41935527 -0.00035030 -0.00415783
53 6.63506019 2.00000000 0.00175661 -0.00429713
54 7.06441720 -1.21840297 -0.00104995 -0.00470319
55 7.07192200 0.36574595 0.00030402 -0.00470703
56 7.25717769 1.15673599 0.00099956 -0.00490882
57 7.27120023 -2.00000000 -0.00178991 -0.00492370
58 7.32082597 2.00000000 0.00179915 -0.00498804
59 7.32635426 -0.43506180 -0.00037484 -0.00496654
60 8.00000000 -0.37644480 -0.00032187 -0.00565343
61 8.00000000 1.21513145 0.00106557 -0.00568722
62 8.00000000 -1.20057321 -0.00104993 -0.00565898
63 8.00000000 0.41912677 0.00035546 -0.00568148
64 8.00000000 -2.00000000 -0.00179655 -0.00564733
65 8.00000000 2.00000000 0.00180499 -0.00567292
Strains, Stresses, Principal Strains and Principal Stresses: 
(quantities are constant in the element)

Element 1
e_11      e_22      e_33     e_12      s_11       s_22       s_33      s_12      VM      e_1      e_2      e_3      s_1      s_2      s_3 
-0.0004  0.0001  0.0000 -0.0001 -5322.4029 -1252.2741 -1972.4031 -1610.5271 4683.4719  0.0001  0.0000 -0.0005 -692.0958 -1972.4031 -5882.5812
Element 2
e_11      e_22      e_33     e_12      s_11       s_22       s_33      s_12      VM      e_1      e_2      e_3      s_1      s_2      s_3 
 0.0001 -0.0000  0.0000 -0.0001 574.5742 -87.0990 146.2425 -1185.3372 2133.7612  0.0001  0.0000 -0.0001 1474.3785 146.2425 -986.9034
Element 3
e_11      e_22      e_33     e_12      s_11       s_22       s_33      s_12      VM      e_1      e_2      e_3      s_1      s_2      s_3 
 0.0001 -0.0000  0.0000 -0.0001 656.5812 102.3566 227.6813 -1395.1998 2468.4329  0.0001  0.0000 -0.0001 1801.9223 227.6813 -1042.9846
Element 4
e_11      e_22      e_33     e_12      s_11       s_22       s_33      s_12      VM      e_1      e_2      e_3      s_1      s_2      s_3 
 0.0001 -0.0000  0.0000 -0.0001 676.6851 -89.8995 176.0357 -1104.5579 2028.4615  0.0001  0.0000 -0.0001 1462.5639 176.0357 -875.7783
Element 5
e_11      e_22      e_33     e_12      s_11       s_22       s_33      s_12      VM      e_1      e_2      e_3      s_1      s_2      s_3 
 0.0002 -0.0001  0.0000 -0.0001 2143.6841 152.6320 688.8948 -1264.7712 2825.4341  0.0002  0.0000 -0.0001 2757.7289 688.8948 -461.4128
Element 6
e_11      e_22      e_33     e_12      s_11       s_22       s_33      s_12      VM      e_1      e_2      e_3      s_1      s_2      s_3 
 0.0004 -0.0001  0.0000 -0.0001 4831.5872 559.1407 1617.2184 -1082.1200 4285.5220  0.0004  0.0000 -0.0001 5090.0317 1617.2184 300.6962
Element 7
e_11      e_22      e_33     e_12      s_11       s_22       s_33      s_12      VM      e_1      e_2      e_3      s_1      s_2      s_3 
 0.0001 -0.0000  0.0000 -0.0001 759.2339 98.9387 257.4518 -1337.6858 2392.6263  0.0001  0.0000 -0.0001 1806.9109 257.4518 -948.7384
Element 8
e_11      e_22      e_33     e_12      s_11       s_22       s_33      s_12      VM      e_1      e_2      e_3      s_1      s_2      s_3 
-0.0001  0.0000  0.0000 -0.0001 -793.5868 -118.2293 -273.5448 -1431.2040 2553.5018  0.0001  0.0000 -0.0001 1014.5924 -273.5448 -1926.4086
Element 9
e_11      e_22      e_33     e_12      s_11       s_22       s_33      s_12      VM      e_1      e_2      e_3      s_1      s_2      s_3 
-0.0004  0.0001  0.0000 -0.0000 -4227.4449 -211.0041 -1331.5347 -720.0381 3800.2902  0.0001  0.0000 -0.0004 -85.8225 -1331.5347 -4352.6265
Element 10
e_11      e_22      e_33     e_12      s_11       s_22       s_33      s_12      VM      e_1      e_2      e_3      s_1      s_2      s_3 
 0.0000 -0.0000  0.0000 -0.0001 34.1866 -88.3091 -16.2367 -1535.5902 2661.8570  0.0001  0.0000 -0.0001 1509.7499 -16.2367 -1563.8723
Element 11
e_11      e_22      e_33     e_12      s_11       s_22       s_33      s_12      VM      e_1      e_2      e_3      s_1      s_2      s_3 
-0.0001  0.0000  0.0000 -0.0001 -581.3360 101.7943 -143.8625 -1211.2317 2181.8445  0.0001  0.0000 -0.0001 1018.7001 -143.8625 -1498.2417
Element 12
e_11      e_22      e_33     e_12      s_11       s_22       s_33      s_12      VM      e_1      e_2      e_3      s_1      s_2      s_3 
-0.0001  0.0000  0.0000 -0.0001 -664.5979 -93.0966 -227.3084 -1423.1150 2518.6689  0.0001  0.0000 -0.0001 1072.6725 -227.3084 -1830.3671
Element 13
e_11      e_22      e_33     e_12      s_11       s_22       s_33      s_12      VM      e_1      e_2      e_3      s_1      s_2      s_3 
 0.0003 -0.0001  0.0000 -0.0000 3350.5165 194.3948 1063.4734 -625.6220 3024.5152  0.0003  0.0000 -0.0001 3470.0065 1063.4734 74.9048
Element 14
e_11      e_22      e_33     e_12      s_11       s_22       s_33      s_12      VM      e_1      e_2      e_3      s_1      s_2      s_3 
 0.0002 -0.0001  0.0000 -0.0000 2019.3509 -123.8241 568.6580 -518.8081 2096.6892  0.0002  0.0000 -0.0001 2138.3353 568.6580 -242.8085
Element 15
e_11      e_22      e_33     e_12      s_11       s_22       s_33      s_12      VM      e_1      e_2      e_3      s_1      s_2      s_3 
-0.0001  0.0000  0.0000 -0.0001 -866.0947 135.7152 -219.1138 -1329.2407 2464.6902  0.0001  0.0000 -0.0001 1055.2984 -219.1138 -1785.6779
Element 16
e_11      e_22      e_33     e_12      s_11       s_22       s_33      s_12      VM      e_1      e_2      e_3      s_1      s_2      s_3 
-0.0001 -0.0000  0.0000 -0.0001 -1154.5906 -508.5438 -498.9403 -1460.5842 2612.2005  0.0001  0.0000 -0.0001 664.3106 -498.9403 -2327.4450
Element 17
e_11      e_22      e_33     e_12      s_11       s_22       s_33      s_12      VM      e_1      e_2      e_3      s_1      s_2      s_3 
-0.0004  0.0002  0.0000 -0.0001 -4861.5079 -418.9378 -1584.1337 -1042.4623 4379.2498  0.0002  0.0000 -0.0004 -186.4839 -1584.1337 -5093.9618
Element 18
e_11      e_22      e_33     e_12      s_11       s_22       s_33      s_12      VM      e_1      e_2      e_3      s_1      s_2      s_3 
-0.0002  0.0001  0.0000 -0.0000 -2604.9338 76.3799 -758.5662 -414.5515 2482.6165  0.0001  0.0000 -0.0002 139.0098 -758.5662 -2667.5637
Element 19
e_11      e_22      e_33     e_12      s_11       s_22       s_33      s_12      VM      e_1      e_2      e_3      s_1      s_2      s_3 
-0.0003  0.0001  0.0000 -0.0000 -2825.4115 11.0322 -844.3138 -214.2428 2547.2708  0.0001  0.0000 -0.0003 27.1232 -844.3138 -2841.5024
Element 20
e_11      e_22      e_33     e_12      s_11       s_22       s_33      s_12      VM      e_1      e_2      e_3      s_1      s_2      s_3 
-0.0003  0.0001  0.0000 -0.0000 -2920.5783 -187.1281 -932.3119 -592.5048 2653.9238  0.0001  0.0000 -0.0003 -64.2226 -932.3119 -3043.4838
Element 21
e_11      e_22      e_33     e_12      s_11       s_22       s_33      s_12      VM      e_1      e_2      e_3      s_1      s_2      s_3 
 0.0001 -0.0000  0.0000 -0.0000 916.5806 42.4017 287.6947 -746.4062 1510.3953  0.0001  0.0000 -0.0000 1344.4590 287.6947 -385.4767
Element 22
e_11      e_22      e_33     e_12      s_11       s_22       s_33      s_12      VM      e_1      e_2      e_3      s_1      s_2      s_3 
 0.0001 -0.0000  0.0000 -0.0000 909.8233 -32.1006 263.3168 -442.9372 1133.4953  0.0001  0.0000 -0.0000 1085.3894 263.3168 -207.6667
Element 23
e_11      e_22      e_33     e_12      s_11       s_22       s_33      s_12      VM      e_1      e_2      e_3      s_1      s_2      s_3 
 0.0004 -0.0001  0.0000 -0.0001 5450.9273 1302.6766 2026.0812 -1617.0791 4751.3440  0.0005  0.0000 -0.0001 6006.8097 2026.0812 746.7942
Element 24
e_11      e_22      e_33     e_12      s_11       s_22       s_33      s_12      VM      e_1      e_2      e_3      s_1      s_2      s_3 
 0.0003 -0.0001  0.0000 -0.0000 2723.0207 -225.4073 749.2840 -70.9912 2604.7194  0.0003  0.0000 -0.0001 2724.7290 749.2840 -227.1156
Element 25
e_11      e_22      e_33     e_12      s_11       s_22       s_33      s_12      VM      e_1      e_2      e_3      s_1      s_2      s_3 
 0.0002 -0.0000  0.0000 -0.0001 2963.5190 744.7823 1112.4904 -1584.1890 3430.9064  0.0003  0.0000 -0.0001 3788.1498 1112.4904 -79.8486
Element 26
e_11      e_22      e_33     e_12      s_11       s_22       s_33      s_12      VM      e_1      e_2      e_3      s_1      s_2      s_3 
 0.0002 -0.0001  0.0000 -0.0000 2522.5752 -200.1769 696.7195 -276.2223 2450.4432  0.0002  0.0000 -0.0001 2550.3152 696.7195 -227.9170
Element 27
e_11      e_22      e_33     e_12      s_11       s_22       s_33      s_12      VM      e_1      e_2      e_3      s_1      s_2      s_3 
 0.0002 -0.0001  0.0000 -0.0001 2462.8327 192.2312 796.5192 -1335.1334 3081.6297  0.0002  0.0000 -0.0001 3080.0983 796.5192 -425.0345
Element 28
e_11      e_22      e_33     e_12      s_11       s_22       s_33      s_12      VM      e_1      e_2      e_3      s_1      s_2      s_3 
 0.0001 -0.0000  0.0000 -0.0001 781.3216 -81.7900 209.8595 -926.3029 1775.5017  0.0001  0.0000 -0.0001 1371.6648 209.8595 -672.1331
Element 29
e_11      e_22      e_33     e_12      s_11       s_22       s_33      s_12      VM      e_1      e_2      e_3      s_1      s_2      s_3 
 0.0002 -0.0001  0.0000 -0.0001 2766.0971 327.7527 928.1549 -1466.0939 3360.1060  0.0003  0.0000 -0.0001 3453.7054 928.1549 -359.8556
Element 30
e_11      e_22      e_33     e_12      s_11       s_22       s_33      s_12      VM      e_1      e_2      e_3      s_1      s_2      s_3 
-0.0001  0.0000  0.0000 -0.0001 -927.4616 -161.1941 -326.5967 -1461.5005 2625.9727  0.0001  0.0000 -0.0001 966.5577 -326.5967 -2055.2134
Element 31
e_11      e_22      e_33     e_12      s_11       s_22       s_33      s_12      VM      e_1      e_2      e_3      s_1      s_2      s_3 
 0.0001 -0.0000  0.0000 -0.0001 851.5327 73.9279 277.6382 -1189.8821 2176.0559  0.0001  0.0000 -0.0001 1714.5237 277.6382 -789.0631
Element 32
e_11      e_22      e_33     e_12      s_11       s_22       s_33      s_12      VM      e_1      e_2      e_3      s_1      s_2      s_3 
-0.0001  0.0000  0.0000 -0.0001 -1083.4197 -263.5937 -404.1040 -1545.0537 2781.7686  0.0001  0.0000 -0.0001 924.9987 -404.1040 -2272.0122
Element 33
e_11      e_22      e_33     e_12      s_11       s_22       s_33      s_12      VM      e_1      e_2      e_3      s_1      s_2      s_3 
-0.0001  0.0000  0.0000 -0.0001 -805.7853 128.7799 -203.1016 -1226.0402 2276.6020  0.0001  0.0000 -0.0001 973.5673 -203.1016 -1650.5727
Element 34
e_11      e_22      e_33     e_12      s_11       s_22       s_33      s_12      VM      e_1      e_2      e_3      s_1      s_2      s_3 
-0.0002  0.0001  0.0000 -0.0001 -2684.8470 -137.6224 -846.7408 -1000.9936 2861.9719  0.0001  0.0000 -0.0003 208.6655 -846.7408 -3031.1348
Element 35
e_11      e_22      e_33     e_12      s_11       s_22       s_33      s_12      VM      e_1      e_2      e_3      s_1      s_2      s_3 
-0.0001  0.0000  0.0000 -0.0001 -917.2316 143.1569 -232.2224 -1262.6424 2376.9902  0.0001  0.0000 -0.0001 982.4047 -232.2224 -1756.4795
Element 36
e_11      e_22      e_33     e_12      s_11       s_22       s_33      s_12      VM      e_1      e_2      e_3      s_1      s_2      s_3 
-0.0002  0.0001  0.0000 -0.0001 -2368.3893 -119.6981 -746.4262 -1127.1555 2802.0566  0.0001  0.0000 -0.0002 348.0093 -746.4262 -2836.0967
Element 37
e_11      e_22      e_33     e_12      s_11       s_22       s_33      s_12      VM      e_1      e_2      e_3      s_1      s_2      s_3 
-0.0002  0.0001  0.0000 -0.0000 -2278.6787 96.9661 -654.5138 -497.8542 2273.0458  0.0001  0.0000 -0.0002 197.0804 -654.5138 -2378.7929
Element 38
e_11      e_22      e_33     e_12      s_11       s_22       s_33      s_12      VM      e_1      e_2      e_3      s_1      s_2      s_3 
-0.0002  0.0001  0.0000 -0.0001 -2023.0578 -101.4826 -637.3621 -1171.5999 2658.5380  0.0001  0.0000 -0.0002 452.9061 -637.3621 -2577.4465
Element 39
e_11      e_22      e_33     e_12      s_11       s_22       s_33      s_12      VM      e_1      e_2      e_3      s_1      s_2      s_3 
-0.0001  0.0000  0.0000 -0.0001 -693.4462 117.5739 -172.7617 -1210.9956 2214.9744  0.0001  0.0000 -0.0001 989.1499 -172.7617 -1565.0222
Element 40
e_11      e_22      e_33     e_12      s_11       s_22       s_33      s_12      VM      e_1      e_2      e_3      s_1      s_2      s_3 
-0.0000 -0.0000  0.0000 -0.0000 -206.7586 -248.7738 -136.6597 -453.5907 791.7436  0.0000  0.0000 -0.0000 226.3107 -136.6597 -681.8431
Element 41
e_11      e_22      e_33     e_12      s_11       s_22       s_33      s_12      VM      e_1      e_2      e_3      s_1      s_2      s_3 
-0.0001  0.0000  0.0000 -0.0000 -751.1016 -102.4422 -256.0631 -470.7884 1004.8064  0.0000  0.0000 -0.0001 144.9199 -256.0631 -998.4637
Element 42
e_11      e_22      e_33     e_12      s_11       s_22       s_33      s_12      VM      e_1      e_2      e_3      s_1      s_2      s_3 
-0.0000  0.0000  0.0000 -0.0000 -173.3094 55.2595 -35.4149 -614.2252 1082.3854  0.0000  0.0000 -0.0000 565.7419 -35.4149 -683.7917
Element 43
e_11      e_22      e_33     e_12      s_11       s_22       s_33      s_12      VM      e_1      e_2      e_3      s_1      s_2      s_3 
-0.0000  0.0000  0.0000 -0.0001 -190.7086 -21.7992 -63.7524 -1187.2560 2062.0219  0.0001  0.0000 -0.0001 1084.0021 -63.7524 -1296.5099
Element 44
e_11      e_22      e_33     e_12      s_11       s_22       s_33      s_12      VM      e_1      e_2      e_3      s_1      s_2      s_3 
 0.0000 -0.0000  0.0000 -0.0001 422.5028 72.5563 148.5177 -1436.6595 2508.7092  0.0001  0.0000 -0.0001 1694.8050 148.5177 -1199.7459
Element 45
e_11      e_22      e_33     e_12      s_11       s_22       s_33      s_12      VM      e_1      e_2      e_3      s_1      s_2      s_3 
-0.0000  0.0000  0.0000 -0.0001 -539.3138 -73.2567 -183.7711 -1420.4157 2496.1288  0.0001  0.0000 -0.0001 1133.1185 -183.7711 -1745.6890
Element 46
e_11      e_22      e_33     e_12      s_11       s_22       s_33      s_12      VM      e_1      e_2      e_3      s_1      s_2      s_3 
 0.0000 -0.0000  0.0000 -0.0001 543.9038 91.2004 190.5313 -1421.2574 2495.9481  0.0001  0.0000 -0.0001 1756.7211 190.5313 -1121.6169
Element 47
e_11      e_22      e_33     e_12      s_11       s_22       s_33      s_12      VM      e_1      e_2      e_3      s_1      s_2      s_3 
 0.0001 -0.0000  0.0000 -0.0000 725.1337 -112.3450 183.8366 -666.4121 1368.7087  0.0001  0.0000 -0.0001 1093.4444 183.8366 -480.6557
Element 48
e_11      e_22      e_33     e_12      s_11       s_22       s_33      s_12      VM      e_1      e_2      e_3      s_1      s_2      s_3 
-0.0003  0.0001  0.0000 -0.0000 -3052.7816 -116.3359 -950.7352 -545.5289 2785.9599  0.0001  0.0000 -0.0003 -18.2637 -950.7352 -3150.8538
Element 49
e_11      e_22      e_33     e_12      s_11       s_22       s_33      s_12      VM      e_1      e_2      e_3      s_1      s_2      s_3 
-0.0003  0.0001  0.0000 -0.0000 -3633.7768 -147.0764 -1134.2560 -596.3708 3279.7223  0.0001  0.0000 -0.0003 -47.8935 -1134.2560 -3732.9597
Element 50
e_11      e_22      e_33     e_12      s_11       s_22       s_33      s_12      VM      e_1      e_2      e_3      s_1      s_2      s_3 
-0.0002  0.0001  0.0000 -0.0000 -1938.4511 97.7602 -552.2072 -544.0884 2033.0370  0.0001  0.0000 -0.0002 234.0251 -552.2072 -2074.7159
Element 51
e_11      e_22      e_33     e_12      s_11       s_22       s_33      s_12      VM      e_1      e_2      e_3      s_1      s_2      s_3 
-0.0002  0.0001  0.0000 -0.0000 -1891.7969 -84.1935 -592.7971 -506.9817 1837.8916  0.0001  0.0000 -0.0002 48.2905 -592.7971 -2024.2809
Element 52
e_11      e_22      e_33     e_12      s_11       s_22       s_33      s_12      VM      e_1      e_2      e_3      s_1      s_2      s_3 
-0.0000  0.0000  0.0000 -0.0001 -471.9906 83.2388 -116.6256 -1215.6236 2161.1286  0.0001  0.0000 -0.0001 1052.5445 -116.6256 -1441.2964
Element 53
e_11      e_22      e_33     e_12      s_11       s_22       s_33      s_12      VM      e_1      e_2      e_3      s_1      s_2      s_3 
-0.0001  0.0001  0.0000 -0.0001 -1668.2119 -81.6551 -524.9601 -1193.4294 2506.6261  0.0001  0.0000 -0.0002 558.0928 -524.9601 -2307.9598
Element 54
e_11      e_22      e_33     e_12      s_11       s_22       s_33      s_12      VM      e_1      e_2      e_3      s_1      s_2      s_3 
-0.0001  0.0000  0.0000 -0.0001 -1308.4548 -59.8509 -410.4917 -1209.5883 2373.4912  0.0001  0.0000 -0.0001 677.0439 -410.4917 -2045.3497
Element 55
e_11      e_22      e_33     e_12      s_11       s_22       s_33      s_12      VM      e_1      e_2      e_3      s_1      s_2      s_3 
-0.0001  0.0001  0.0000 -0.0000 -1248.8510 77.4468 -351.4213 -598.7932 1565.1986  0.0001  0.0000 -0.0001 307.7853 -351.4213 -1479.1895
Element 56
e_11      e_22      e_33     e_12      s_11       s_22       s_33      s_12      VM      e_1      e_2      e_3      s_1      s_2      s_3 
-0.0002  0.0001  0.0000 -0.0000 -2473.0179 -96.6058 -770.8871 -522.0131 2305.8865  0.0001  0.0000 -0.0002 13.0061 -770.8871 -2582.6298
Element 57
e_11      e_22      e_33     e_12      s_11       s_22       s_33      s_12      VM      e_1      e_2      e_3      s_1      s_2      s_3 
-0.0001  0.0001  0.0000 -0.0000 -1594.9348 89.3246 -451.6831 -574.9918 1791.6664  0.0001  0.0000 -0.0002 266.8998 -451.6831 -1772.5100
Element 58
e_11      e_22      e_33     e_12      s_11       s_22       s_33      s_12      VM      e_1      e_2      e_3      s_1      s_2      s_3 
 0.0003 -0.0001  0.0000 -0.0000 3883.3584 252.8319 1240.8571 -741.3952 3495.5493  0.0003  0.0000 -0.0001 4028.9234 1240.8571 107.2669
Element 59
e_11      e_22      e_33     e_12      s_11       s_22       s_33      s_12      VM      e_1      e_2      e_3      s_1      s_2      s_3 
 0.0004 -0.0001  0.0000 -0.0001 4382.8756 362.9301 1423.7417 -894.4850 3926.9821  0.0004  0.0000 -0.0001 4572.9242 1423.7417 172.8815
Element 60
e_11      e_22      e_33     e_12      s_11       s_22       s_33      s_12      VM      e_1      e_2      e_3      s_1      s_2      s_3 
 0.0002 -0.0001  0.0000 -0.0000 2306.1948 -146.7918 647.8209 -419.8561 2286.5292  0.0002  0.0000 -0.0001 2376.0675 647.8209 -216.6646
Element 61
e_11      e_22      e_33     e_12      s_11       s_22       s_33      s_12      VM      e_1      e_2      e_3      s_1      s_2      s_3 
 0.0000 -0.0000  0.0000 -0.0001 132.1294 -69.2880 18.8524 -1270.4848 2207.4826  0.0001  0.0000 -0.0001 1305.8907 18.8524 -1243.0493
Element 62
e_11      e_22      e_33     e_12      s_11       s_22       s_33      s_12      VM      e_1      e_2      e_3      s_1      s_2      s_3 
 0.0000 -0.0000  0.0000 -0.0001 249.8898 -60.5315 56.8075 -1263.2338 2204.7640  0.0001  0.0000 -0.0001 1367.4125 56.8075 -1178.0541
Element 63
e_11      e_22      e_33     e_12      s_11       s_22       s_33      s_12      VM      e_1      e_2      e_3      s_1      s_2      s_3 
 0.0001 -0.0000  0.0000 -0.0001 795.5890 66.2794 258.5605 -1156.7038 2107.7294  0.0001  0.0000 -0.0001 1643.7560 258.5605 -781.8877
Element 64
e_11      e_22      e_33     e_12      s_11       s_22       s_33      s_12      VM      e_1      e_2      e_3      s_1      s_2      s_3 
 0.0000 -0.0000  0.0000 -0.0001 -142.1821 -448.3449 -177.1581 -1270.9289 2220.3674  0.0001  0.0000 -0.0001 984.8514 -177.1581 -1575.3784
Element 65
e_11      e_22      e_33     e_12      s_11       s_22       s_33      s_12      VM      e_1      e_2      e_3      s_1      s_2      s_3 
 0.0000  0.0000  0.0000 -0.0001 62.5161 100.8099 48.9978 -1052.4357 1823.4663  0.0001  0.0000 -0.0001 1134.2728 48.9978 -970.9468
Element 66
e_11      e_22      e_33     e_12      s_11       s_22       s_33      s_12      VM      e_1      e_2      e_3      s_1      s_2      s_3 
-0.0001  0.0000  0.0000 -0.0000 -526.3659 64.8824 -138.4450 -617.3562 1189.1533  0.0000  0.0000 -0.0001 453.7451 -138.4450 -915.2286
Element 67
e_11      e_22      e_33     e_12      s_11       s_22       s_33      s_12      VM      e_1      e_2      e_3      s_1      s_2      s_3 
-0.0001  0.0000  0.0000 -0.0000 -1312.9723 -86.5100 -419.8447 -489.1483 1387.1905  0.0000  0.0000 -0.0001 84.6812 -419.8447 -1484.1636
Element 68
e_11      e_22      e_33     e_12      s_11       s_22       s_33      s_12      VM      e_1      e_2      e_3      s_1      s_2      s_3 
-0.0001  0.0000  0.0000 -0.0000 -896.2227 67.3278 -248.6685 -617.2301 1366.2811  0.0001  0.0000 -0.0001 368.5470 -248.6685 -1197.4420
Element 69
e_11      e_22      e_33     e_12      s_11       s_22       s_33      s_12      VM      e_1      e_2      e_3      s_1      s_2      s_3 
 0.0001 -0.0000  0.0000 -0.0001 1132.8916 88.5433 366.4305 -1171.1366 2234.3582  0.0001  0.0000 -0.0001 1892.9915 366.4305 -671.5566
Element 70
e_11      e_22      e_33     e_12      s_11       s_22       s_33      s_12      VM      e_1      e_2      e_3      s_1      s_2      s_3 
 0.0000 -0.0000  0.0000 -0.0001 363.2391 -67.4196 88.7458 -1249.4346 2196.7843  0.0001  0.0000 -0.0001 1415.7637 88.7458 -1119.9442
Element 71
e_11      e_22      e_33     e_12      s_11       s_22       s_33      s_12      VM      e_1      e_2      e_3      s_1      s_2      s_3 
 0.0000 -0.0000  0.0000 -0.0001 473.3053 25.5853 149.6672 -1160.3939 2049.3506  0.0001  0.0000 -0.0001 1431.2352 149.6672 -932.3446
Element 72
e_11      e_22      e_33     e_12      s_11       s_22       s_33      s_12      VM      e_1      e_2      e_3      s_1      s_2      s_3 
 0.0000 -0.0000  0.0000 -0.0001 12.4945 -97.0480 -25.3661 -1317.1958 2283.4841  0.0001  0.0000 -0.0001 1276.0572 -25.3661 -1360.6108
Element 73
e_11      e_22      e_33     e_12      s_11       s_22       s_33      s_12      VM      e_1      e_2      e_3      s_1      s_2      s_3 
 0.0000 -0.0000  0.0000 -0.0001 210.4321 10.9182 66.4051 -1194.1975 2076.0870  0.0001  0.0000 -0.0001 1309.0320 66.4051 -1087.6817
Element 74
e_11      e_22      e_33     e_12      s_11       s_22       s_33      s_12      VM      e_1      e_2      e_3      s_1      s_2      s_3 
-0.0000  0.0000  0.0000 -0.0001 -366.3514 62.2863 -91.2195 -1217.7962 2142.5636  0.0001  0.0000 -0.0001 1084.4787 -91.2195 -1388.5438
Element 75
e_11      e_22      e_33     e_12      s_11       s_22       s_33      s_12      VM      e_1      e_2      e_3      s_1      s_2      s_3 
-0.0001  0.0000  0.0000 -0.0001 -945.1589 -39.8036 -295.4888 -1222.6129 2266.6946  0.0001  0.0000 -0.0001 811.2440 -295.4888 -1796.2065
Element 76
e_11      e_22      e_33     e_12      s_11       s_22       s_33      s_12      VM      e_1      e_2      e_3      s_1      s_2      s_3 
-0.0000  0.0000  0.0000 -0.0001 -418.3096 -57.0470 -142.6070 -1413.9509 2470.7676  0.0001  0.0000 -0.0001 1187.7636 -142.6070 -1663.1202
Element 77
e_11      e_22      e_33     e_12      s_11       s_22       s_33      s_12      VM      e_1      e_2      e_3      s_1      s_2      s_3 
 0.0000 -0.0000  0.0000 -0.0001 295.3404 48.5543 103.1684 -1449.8689 2521.2632  0.0001  0.0000 -0.0001 1627.0576 103.1684 -1283.1629
Element 78
e_11      e_22      e_33     e_12      s_11       s_22       s_33      s_12      VM      e_1      e_2      e_3      s_1      s_2      s_3 
-0.0000  0.0000  0.0000 -0.0001 -155.5099 -8.9819 -49.3475 -1189.4616 2064.3745  0.0001  0.0000 -0.0001 1109.4699 -49.3475 -1273.9617
Element 79
e_11      e_22      e_33     e_12      s_11       s_22       s_33      s_12      VM      e_1      e_2      e_3      s_1      s_2      s_3 
-0.0001  0.0000  0.0000 -0.0001 -581.2245 -35.0865 -184.8933 -1216.9213 2163.6973  0.0001  0.0000 -0.0001 939.0270 -184.8933 -1555.3380
Element 80
e_11      e_22      e_33     e_12      s_11       s_22       s_33      s_12      VM      e_1      e_2      e_3      s_1      s_2      s_3 
-0.0000  0.0000  0.0000 -0.0001 -263.5735 35.3146 -68.4777 -1213.1726 2117.6515  0.0001  0.0000 -0.0001 1108.2130 -68.4777 -1336.4720
Element 81
e_11      e_22      e_33     e_12      s_11       s_22       s_33      s_12      VM      e_1      e_2      e_3      s_1      s_2      s_3 
-0.0000  0.0000  0.0000 -0.0001 -302.9772 -51.9066 -106.4652 -1397.8921 2431.9996  0.0001  0.0000 -0.0001 1226.0756 -106.4652 -1580.9594
Element 82
e_11      e_22      e_33     e_12      s_11       s_22       s_33      s_12      VM      e_1      e_2      e_3      s_1      s_2      s_3 
-0.0000 -0.0000  0.0000 -0.0001 -194.3323 -87.7277 -84.6180 -1369.4140 2374.3609  0.0001  0.0000 -0.0001 1229.4209 -84.6180 -1511.4809
Element 83
e_11      e_22      e_33     e_12      s_11       s_22       s_33      s_12      VM      e_1      e_2      e_3      s_1      s_2      s_3 
 0.0000 -0.0000  0.0000 -0.0001 164.5103 12.3099 53.0461 -1465.8760 2542.6368  0.0001  0.0000 -0.0001 1556.2602 53.0461 -1379.4400
Element 84
e_11      e_22      e_33     e_12      s_11       s_22       s_33      s_12      VM      e_1      e_2      e_3      s_1      s_2      s_3 
 0.0002 -0.0001  0.0000 -0.0000 1746.6077 142.9188 566.8580 -450.4335 1637.1765  0.0002  0.0000 -0.0001 1864.4615 566.8580 25.0650
Element 85
e_11      e_22      e_33     e_12      s_11       s_22       s_33      s_12      VM      e_1      e_2      e_3      s_1      s_2      s_3 
 0.0001 -0.0001  0.0000 -0.0000 1053.5623 -106.2872 284.1825 -640.8916 1508.9922  0.0001  0.0000 -0.0001 1337.9608 284.1825 -390.6857
Element 86
e_11      e_22      e_33     e_12      s_11       s_22       s_33      s_12      VM      e_1      e_2      e_3      s_1      s_2      s_3 
 0.0002 -0.0001  0.0000 -0.0000 2271.8311 149.0794 726.2732 -484.6903 2078.1632  0.0002  0.0000 -0.0001 2377.2643 726.2732 43.6462
Element 87
e_11      e_22      e_33     e_12      s_11       s_22       s_33      s_12      VM      e_1      e_2      e_3      s_1      s_2      s_3 
 0.0001 -0.0001  0.0000 -0.0000 1384.3650 -106.8527 383.2537 -613.9115 1692.2592  0.0001  0.0000 -0.0001 1604.5822 383.2537 -327.0698
Element 88
e_11      e_22      e_33     e_12      s_11       s_22       s_33      s_12      VM      e_1      e_2      e_3      s_1      s_2      s_3 
 0.0002 -0.0001  0.0000 -0.0000 1708.4069 -112.4976 478.7728 -577.4501 1894.4637  0.0002  0.0000 -0.0001 1876.0882 478.7728 -280.1789
Element 89
e_11      e_22      e_33     e_12      s_11       s_22       s_33      s_12      VM      e_1      e_2      e_3      s_1      s_2      s_3 
 0.0002 -0.0001  0.0000 -0.0000 2808.7632 163.3584 891.6365 -542.6082 2546.6127  0.0003  0.0000 -0.0001 2915.7339 891.6365 56.3876
Element 90
e_11      e_22      e_33     e_12      s_11       s_22       s_33      s_12      VM      e_1      e_2      e_3      s_1      s_2      s_3 
 0.0002 -0.0001  0.0000 -0.0001 1813.5225 128.5422 582.6194 -1222.6228 2600.8946  0.0002  0.0000 -0.0001 2455.8206 582.6194 -513.7559
Element 91
e_11      e_22      e_33     e_12      s_11       s_22       s_33      s_12      VM      e_1      e_2      e_3      s_1      s_2      s_3 
 0.0000 -0.0000  0.0000 -0.0001 471.1852 -78.4763 117.8127 -1226.2209 2177.9848  0.0001  0.0000 -0.0001 1452.9967 117.8127 -1060.2877
Element 92
e_11      e_22      e_33     e_12      s_11       s_22       s_33      s_12      VM      e_1      e_2      e_3      s_1      s_2      s_3 
 0.0001 -0.0000  0.0000 -0.0001 1474.7071 107.7469 474.7362 -1193.2248 2402.6981  0.0002  0.0000 -0.0001 2166.3381 474.7362 -583.8841
Element 93
e_11      e_22      e_33     e_12      s_11       s_22       s_33      s_12      VM      e_1      e_2      e_3      s_1      s_2      s_3 
 0.0000 -0.0000  0.0000 -0.0000 416.1589 -123.3593 87.8399 -701.6286 1303.2986  0.0001  0.0000 -0.0000 898.0996 87.8399 -605.3001
Element 94
e_11      e_22      e_33     e_12      s_11       s_22       s_33      s_12      VM      e_1      e_2      e_3      s_1      s_2      s_3 
 0.0001 -0.0000  0.0000 -0.0000 1234.4976 130.3357 409.4500 -450.7696 1264.3064  0.0001  0.0000 -0.0000 1395.1484 409.4500 -30.3152
Element 95
e_11      e_22      e_33     e_12      s_11       s_22       s_33      s_12      VM      e_1      e_2      e_3      s_1      s_2      s_3 
 0.0001 -0.0000  0.0000 -0.0000 731.8778 116.8970 254.6325 -492.1800 1019.4073  0.0001  0.0000 -0.0000 1004.7248 254.6325 -155.9500
Element 96
e_11      e_22      e_33     e_12      s_11       s_22       s_33      s_12      VM      e_1      e_2      e_3      s_1      s_2      s_3 
 0.0000  0.0000  0.0000 -0.0000 220.6963 294.7316 154.6284 -510.0830 891.7912  0.0000  0.0000 -0.0000 769.1384 154.6284 -253.7105
Element 97
e_11      e_22      e_33     e_12      s_11       s_22       s_33      s_12      VM      e_1      e_2      e_3      s_1      s_2      s_3 
 0.0000 -0.0000  0.0000 -0.0000 107.5830 -118.1302 -3.1641 -766.1842 1341.3907  0.0001  0.0000 -0.0001 769.1778 -3.1641 -779.7249
