********************************************************
*                      VEMLab 2.2                      *
*      http://camlab.cl/research/software/vemlab       *
*------------------------------------------------------*
*               Linear Elastostatics                   *
********************************************************

Mesh filename: vem_letters_7poly_elems.txt
Method: VEM2D
Date: 7-10-2018
Time: 16:34 hrs

Nodal Displacements: 
 Node      Coords         u1       u2 
1 0.00000000 0.00000000 0.00000000 0.00000000
2 5.70000000 0.00000000 -0.11440712 -0.05021626
3 5.70000000 3.00000000 -0.06086459 -0.05188507
4 4.60000000 3.00000000 -0.05107365 -0.04037591
5 2.70000000 14.10000000 0.03727246 -0.02165968
6 4.60000000 14.10000000 0.04059056 -0.04306014
7 5.70000000 8.70000000 -0.00226245 -0.05339007
8 5.70000000 17.00000000 0.10617271 -0.05036347
9 0.00000000 17.00000000 0.00000000 0.00000000
10 13.70000000 0.00000000 -0.19567652 -0.21637862
11 13.70000000 3.00000000 -0.12210177 -0.21846256
12 10.20000000 3.00000000 -0.11278515 -0.13534676
13 10.20000000 14.10000000 0.11556977 -0.13435048
14 13.70000000 14.10000000 0.12401819 -0.21780674
15 13.70000000 17.00000000 0.19517381 -0.21592468
16 16.70000000 3.00000000 -0.13055403 -0.29873711
17 16.70000000 4.50000000 -0.09111053 -0.29884247
18 12.50000000 4.50000000 -0.09065229 -0.19030701
19 12.50000000 8.00000000 -0.01355789 -0.19002081
20 15.90000000 8.00000000 -0.01401067 -0.27778009
21 15.90000000 9.30000000 0.02051659 -0.27788361
22 12.50000000 9.30000000 0.02096937 -0.19012433
23 12.50000000 12.80000000 0.09806377 -0.18983814
24 16.70000000 12.80000000 0.09757736 -0.29833821
25 16.70000000 14.10000000 0.13234955 -0.29845046
26 21.70000000 0.00000000 -0.23648845 -0.43932279
27 21.70000000 3.00000000 -0.14913304 -0.44072678
28 20.70000000 8.60000000 0.00187573 -0.41169602
29 20.70000000 3.00000000 -0.14497379 -0.41135716
30 18.20000000 3.00000000 -0.14575223 -0.34024793
31 18.20000000 14.10000000 0.14578725 -0.34061874
32 20.70000000 14.10000000 0.14656692 -0.41178344
33 21.70000000 8.60000000 0.00252362 -0.44048881
34 21.70000000 17.00000000 0.23464565 -0.43971456
35 22.70000000 8.60000000 0.00214403 -0.47103351
36 22.70000000 3.00000000 -0.15277386 -0.47051869
37 25.10000000 3.00000000 -0.15334803 -0.54366934
38 25.10000000 14.10000000 0.15521512 -0.54407683
39 22.70000000 14.10000000 0.15630372 -0.47097963
40 27.20000000 0.00000000 -0.24375152 -0.60950886
41 27.20000000 17.00000000 0.24373816 -0.60940481
42 6.70000000 3.00000000 -0.07191048 -0.06785812
43 9.20000000 14.10000000 0.07905306 -0.11178917
44 6.70000000 14.10000000 0.07321640 -0.07282182
Strains, Stresses, Principal Strains and Principal Stresses: 
(quantities are constant in the element)

Element 1
e_11      e_22      e_33     e_12      s_11       s_22       s_33      s_12      VM      e_1      e_2      e_3      s_1      s_2      s_3 
-0.0002  0.0001  0.0000 -0.0014 -1721.5486 -105.8732 -548.2265 -10408.3345 18085.6757  0.0013  0.0000 -0.0014 9525.9265 -548.2265 -11353.3483
Element 2
e_11      e_22      e_33     e_12      s_11       s_22       s_33      s_12      VM      e_1      e_2      e_3      s_1      s_2      s_3 
-0.0002  0.0001  0.0000 -0.0014 -1721.5486 -105.8732 -548.2265 -10408.3345 18085.6757  0.0013  0.0000 -0.0014 9525.9265 -548.2265 -11353.3483
Element 3
e_11      e_22      e_33     e_12      s_11       s_22       s_33      s_12      VM      e_1      e_2      e_3      s_1      s_2      s_3 
-0.0002  0.0001  0.0000 -0.0014 -1721.5486 -105.8732 -548.2265 -10408.3345 18085.6757  0.0013  0.0000 -0.0014 9525.9265 -548.2265 -11353.3483
Element 4
e_11      e_22      e_33     e_12      s_11       s_22       s_33      s_12      VM      e_1      e_2      e_3      s_1      s_2      s_3 
-0.0002  0.0001  0.0000 -0.0014 -1721.5486 -105.8732 -548.2265 -10408.3345 18085.6757  0.0013  0.0000 -0.0014 9525.9265 -548.2265 -11353.3483
Element 5
e_11      e_22      e_33     e_12      s_11       s_22       s_33      s_12      VM      e_1      e_2      e_3      s_1      s_2      s_3 
-0.0002  0.0001  0.0000 -0.0014 -1721.5486 -105.8732 -548.2265 -10408.3345 18085.6757  0.0013  0.0000 -0.0014 9525.9265 -548.2265 -11353.3483
Element 6
e_11      e_22      e_33     e_12      s_11       s_22       s_33      s_12      VM      e_1      e_2      e_3      s_1      s_2      s_3 
-0.0002  0.0001  0.0000 -0.0014 -1721.5486 -105.8732 -548.2265 -10408.3345 18085.6757  0.0013  0.0000 -0.0014 9525.9265 -548.2265 -11353.3483
Element 7
e_11      e_22      e_33     e_12      s_11       s_22       s_33      s_12      VM      e_1      e_2      e_3      s_1      s_2      s_3 
-0.0002  0.0001  0.0000 -0.0014 -1721.5486 -105.8732 -548.2265 -10408.3345 18085.6757  0.0013  0.0000 -0.0014 9525.9265 -548.2265 -11353.3483
