********************************************************
*                      VEMLab 2.1                      *
*      http://camlab.cl/research/software/vemlab       *
*------------------------------------------------------*
*               Linear Elastostatics                   *
********************************************************

Mesh filename: rigidtranslation_patch_test_4poly_elems.txt
Method: VEM2D
Date: 28-9-2018
Time: 18:28 hrs

Nodal Displacements: 
 Node      Coords         u1       u2 
1 -0.50000000 -0.50000000 0.50000000 0.50000000
2 0.00000000 -0.50000000 0.50000000 0.50000000
3 0.50000000 -0.50000000 0.50000000 0.50000000
4 -0.50000000 0.00000000 0.50000000 0.50000000
5 0.00000000 0.00000000 0.50000000 0.50000000
6 0.50000000 0.00000000 0.50000000 0.50000000
7 -0.50000000 0.50000000 0.50000000 0.50000000
8 0.00000000 0.50000000 0.50000000 0.50000000
9 0.50000000 0.50000000 0.50000000 0.50000000
Strains, Stresses, Principal Strains and Principal Stresses: 
(quantities are constant in the element)

Element 1
e_11      e_22      e_33     e_12      s_11       s_22       s_33      s_12      VM      e_1      e_2      e_3      s_1      s_2      s_3 
 0.0000  0.0000  0.0000  0.0000  0.0000  0.0000  0.0000  0.0000  0.0000  0.0000  0.0000  0.0000  0.0000  0.0000  0.0000
Element 2
e_11      e_22      e_33     e_12      s_11       s_22       s_33      s_12      VM      e_1      e_2      e_3      s_1      s_2      s_3 
 0.0000  0.0000  0.0000  0.0000  0.0000  0.0000  0.0000  0.0000  0.0000  0.0000  0.0000  0.0000  0.0000  0.0000  0.0000
Element 3
e_11      e_22      e_33     e_12      s_11       s_22       s_33      s_12      VM      e_1      e_2      e_3      s_1      s_2      s_3 
-0.0000  0.0000  0.0000  0.0000 -0.0000  0.0000  0.0000  0.0000  0.0000  0.0000  0.0000 -0.0000  0.0000  0.0000 -0.0000
Element 4
e_11      e_22      e_33     e_12      s_11       s_22       s_33      s_12      VM      e_1      e_2      e_3      s_1      s_2      s_3 
-0.0000  0.0000  0.0000  0.0000 -0.0000  0.0000  0.0000  0.0000  0.0000  0.0000  0.0000 -0.0000  0.0000  0.0000 -0.0000
