********************************************************
*                      VEMLab 1.0                      *
*      http://camlab.cl/research/software/vemlab       *
*------------------------------------------------------*
*               Linear Elastostatics                   *
********************************************************

Mesh filename: cantilever_beam_t3_test.txt
Method: VEM2D
Date: 3-1-2018
Time:  2:22 hrs

Nodal Displacements: 
 Node      Coords         u1       u2 
1 8.00000000 -2.00000000 -0.00080389 -0.00248110
2 7.00000000 -2.00000000 -0.00079117 -0.00203827
3 8.00000000 -1.00000000 -0.00038423 -0.00249364
4 7.36418240 -1.00178991 -0.00038522 -0.00219723
5 6.45482810 -1.06034961 -0.00039294 -0.00178213
6 6.00000000 -2.00000000 -0.00074822 -0.00159953
7 8.00000000 0.00000000 0.00000187 -0.00249739
8 6.74954701 -0.13571817 -0.00004861 -0.00191034
9 5.66076055 -0.99275904 -0.00034287 -0.00143296
10 5.95447868 -0.23182561 -0.00007866 -0.00155263
11 7.15117697 0.66688434 0.00025725 -0.00209780
12 8.00000000 1.00000000 0.00038915 -0.00249485
13 5.00000000 -2.00000000 -0.00067980 -0.00118531
14 6.25375853 0.51298300 0.00018883 -0.00168673
15 4.86570247 -1.09252822 -0.00034258 -0.00111053
16 5.16191369 -0.34757930 -0.00010970 -0.00121795
17 7.34908516 1.36748395 0.00053869 -0.00219094
18 5.45938706 0.39780697 0.00013619 -0.00134120
19 6.55467392 1.25655726 0.00047751 -0.00182860
20 5.76071936 1.14195147 0.00040730 -0.00147808
21 4.13661217 -1.24539319 -0.00034869 -0.00083800
22 4.36990611 -0.46254392 -0.00012989 -0.00090941
23 8.00000000 2.00000000 0.00080797 -0.00248306
24 4.00000000 -2.00000000 -0.00057639 -0.00082051
25 4.66649753 0.28381732 0.00008764 -0.00102110
26 7.00000000 2.00000000 0.00079611 -0.00203768
27 4.96584256 1.02874350 0.00033109 -0.00114847
28 6.00000000 2.00000000 0.00074956 -0.00160022
29 3.87418512 0.16935353 0.00004457 -0.00073058
30 3.49095450 -0.61067964 -0.00014260 -0.00060452
31 3.26808819 -1.29645597 -0.00029279 -0.00055302
32 4.17145745 0.91294183 0.00025221 -0.00084983
33 5.00000000 2.00000000 0.00067525 -0.00119347
34 3.00000000 -2.00000000 -0.00043952 -0.00051096
35 3.08708955 0.08118380 0.00001475 -0.00047643
36 2.68936644 -0.61422825 -0.00010766 -0.00037249
37 3.35078412 1.02656010 0.00023521 -0.00056859
38 4.00000000 2.00000000 0.00057968 -0.00081591
39 2.29162077 -1.30843472 -0.00020007 -0.00029672
40 2.00000000 -2.00000000 -0.00026743 -0.00027757
41 2.61948882 0.67282719 0.00011836 -0.00035580
42 1.88949071 -0.62558717 -0.00006979 -0.00019182
43 2.10980190 0.13044583 0.00001986 -0.00022710
44 2.70326787 1.34959902 0.00025344 -0.00039862
45 3.00000000 2.00000000 0.00044997 -0.00051663
46 1.39333191 -1.10727224 -0.00007620 -0.00012184
47 1.98284287 0.97184965 0.00011713 -0.00022521
48 1.32747724 -0.19261231 -0.00001118 -0.00009368
49 1.00000000 -2.00000000 -0.00007036 -0.00013968
50 2.00000000 2.00000000 0.00027608 -0.00028058
51 1.27311230 0.60298849 0.00003297 -0.00009475
52 1.39106314 1.35462257 0.00009675 -0.00014369
53 0.66983812 -0.51755810 0.00000578 -0.00003642
54 0.62930183 0.36130931 -0.00000552 -0.00002460
55 0.69936663 1.19827655 -0.00000165 -0.00006350
56 0.00000000 -2.00000000 0.00013975 -0.00011700
57 1.00000000 2.00000000 0.00007671 -0.00014697
58 0.00000000 -1.00000000 0.00009059 -0.00002925
59 0.00000000 0.00000000 -0.00000000 -0.00000000
60 0.00000000 1.00000000 -0.00009059 -0.00002925
61 0.00000000 2.00000000 -0.00013975 -0.00011700
Strains, Stresses, Principal Strains and Principal Stresses: 
(quantities are constant in the element)

Element 1
e_11      e_22      e_33     e_12      s_11       s_22       s_33      s_12      VM      e_1      e_2      e_3      s_1      s_2      s_3 
-0.0002  0.0001  0.0000 -0.0000 -2322.1697 -30.9299 -705.9299 -276.3115 2094.7225  0.0001  0.0000 -0.0002  1.9209 -705.9299 -2355.0204
Element 2
e_11      e_22      e_33     e_12      s_11       s_22       s_33      s_12      VM      e_1      e_2      e_3      s_1      s_2      s_3 
-0.0002  0.0001  0.0000 -0.0000 -2187.0283 -49.9634 -671.0975 -221.5309 1942.3383  0.0001  0.0000 -0.0002 -27.2408 -671.0975 -2209.7508
Element 3
e_11      e_22      e_33     e_12      s_11       s_22       s_33      s_12      VM      e_1      e_2      e_3      s_1      s_2      s_3 
-0.0001  0.0000  0.0000 -0.0000 -1290.1930 -29.2603 -395.8360 -69.5823 1129.8791  0.0000  0.0000 -0.0001 -25.4322 -395.8360 -1294.0211
Element 4
e_11      e_22      e_33     e_12      s_11       s_22       s_33      s_12      VM      e_1      e_2      e_3      s_1      s_2      s_3 
-0.0001  0.0001  0.0000 -0.0000 -1217.0229 246.7869 -291.0708 -268.1793 1363.9902  0.0001  0.0000 -0.0001 294.3722 -291.0708 -1264.6082
Element 5
e_11      e_22      e_33     e_12      s_11       s_22       s_33      s_12      VM      e_1      e_2      e_3      s_1      s_2      s_3 
-0.0001  0.0000  0.0000 -0.0001 -657.2881 39.7337 -185.2663 -470.6394 1021.8311  0.0001  0.0000 -0.0001 276.8518 -185.2663 -894.4062
Element 6
e_11      e_22      e_33     e_12      s_11       s_22       s_33      s_12      VM      e_1      e_2      e_3      s_1      s_2      s_3 
-0.0000  0.0000  0.0000 -0.0000 47.2384 144.8820 57.6361 -225.1347 400.8542  0.0000  0.0000 -0.0000 326.4277 57.6361 -134.3074
Element 7
e_11      e_22      e_33     e_12      s_11       s_22       s_33      s_12      VM      e_1      e_2      e_3      s_1      s_2      s_3 
 0.0000 -0.0000  0.0000 -0.0001 413.3389 -144.2833 80.7167 -434.2212 895.4031  0.0001  0.0000 -0.0001 650.5546 80.7167 -381.4991
Element 8
e_11      e_22      e_33     e_12      s_11       s_22       s_33      s_12      VM      e_1      e_2      e_3      s_1      s_2      s_3 
-0.0000  0.0000  0.0000 -0.0001 -202.7008 14.4400 -56.4782 -405.2669 727.6703  0.0000  0.0000 -0.0001 325.4275 -56.4782 -513.6883
Element 9
e_11      e_22      e_33     e_12      s_11       s_22       s_33      s_12      VM      e_1      e_2      e_3      s_1      s_2      s_3 
-0.0001  0.0000  0.0000 -0.0000 -655.3752 -20.8043 -202.8539 -122.7721 604.5808  0.0000  0.0000 -0.0001  2.1205 -202.8539 -678.3001
Element 10
e_11      e_22      e_33     e_12      s_11       s_22       s_33      s_12      VM      e_1      e_2      e_3      s_1      s_2      s_3 
 0.0000 -0.0000  0.0000 -0.0000 461.8720 103.8493 169.7164 -183.2577 457.9159  0.0000  0.0000 -0.0000 539.0411 169.7164 26.6801
Element 11
e_11      e_22      e_33     e_12      s_11       s_22       s_33      s_12      VM      e_1      e_2      e_3      s_1      s_2      s_3 
 0.0001 -0.0000  0.0000 -0.0000 1485.1323 159.5888 493.4163 -164.7443 1227.7725  0.0001  0.0000 -0.0000 1505.3005 493.4163 139.4206
Element 12
e_11      e_22      e_33     e_12      s_11       s_22       s_33      s_12      VM      e_1      e_2      e_3      s_1      s_2      s_3 
 0.0000 -0.0000  0.0000 -0.0001 146.6311 -75.9967 21.1903 -418.1287 749.5777  0.0001  0.0000 -0.0001 468.0092 21.1903 -397.3748
Element 13
e_11      e_22      e_33     e_12      s_11       s_22       s_33      s_12      VM      e_1      e_2      e_3      s_1      s_2      s_3 
-0.0000  0.0000  0.0000 -0.0000 -122.2226 -14.5642 -41.0360 -193.4743 348.9098  0.0000  0.0000 -0.0000 132.4296 -41.0360 -269.2164
Element 14
e_11      e_22      e_33     e_12      s_11       s_22       s_33      s_12      VM      e_1      e_2      e_3      s_1      s_2      s_3 
 0.0001 -0.0000  0.0000 -0.0000 593.8583 -5.2179 176.5921 -183.6704 619.8658  0.0001  0.0000 -0.0000 645.6860 176.5921 -57.0456
Element 15
e_11      e_22      e_33     e_12      s_11       s_22       s_33      s_12      VM      e_1      e_2      e_3      s_1      s_2      s_3 
 0.0001 -0.0000  0.0000 -0.0000 863.8065 -63.6605 240.0438 -350.6563 1019.6249  0.0001  0.0000 -0.0001 981.4580 240.0438 -181.3120
Element 16
e_11      e_22      e_33     e_12      s_11       s_22       s_33      s_12      VM      e_1      e_2      e_3      s_1      s_2      s_3 
 0.0001 -0.0000  0.0000 -0.0000 636.4883 -66.6889 170.9398 -364.9932 885.1501  0.0001  0.0000 -0.0001 791.6882 170.9398 -221.8888
Element 17
e_11      e_22      e_33     e_12      s_11       s_22       s_33      s_12      VM      e_1      e_2      e_3      s_1      s_2      s_3 
-0.0001  0.0000  0.0000 -0.0000 -594.5258 -42.9854 -191.2534 -355.5967 789.7794  0.0000  0.0000 -0.0001 131.2424 -191.2534 -768.7536
Element 18
e_11      e_22      e_33     e_12      s_11       s_22       s_33      s_12      VM      e_1      e_2      e_3      s_1      s_2      s_3 
-0.0001  0.0000  0.0000 -0.0000 -1216.7178 -28.0903 -373.4424 -224.6521 1128.2792  0.0001  0.0000 -0.0001 12.9521 -373.4424 -1257.7601
Element 19
e_11      e_22      e_33     e_12      s_11       s_22       s_33      s_12      VM      e_1      e_2      e_3      s_1      s_2      s_3 
-0.0001  0.0000  0.0000 -0.0000 -1140.9712 57.2984 -325.1018 -159.3132 1095.4467  0.0001  0.0000 -0.0001 78.1178 -325.1018 -1161.7906
Element 20
e_11      e_22      e_33     e_12      s_11       s_22       s_33      s_12      VM      e_1      e_2      e_3      s_1      s_2      s_3 
-0.0002  0.0001  0.0000 -0.0000 -1908.5645 -40.7678 -584.7997 -243.8790 1716.6611  0.0001  0.0000 -0.0002 -9.4495 -584.7997 -1939.8828
Element 21
e_11      e_22      e_33     e_12      s_11       s_22       s_33      s_12      VM      e_1      e_2      e_3      s_1      s_2      s_3 
-0.0000  0.0000  0.0000 -0.0000 -550.3136 -11.2570 -168.4712 -248.5191 644.8536  0.0000  0.0000 -0.0001 85.8306 -168.4712 -647.4012
Element 22
e_11      e_22      e_33     e_12      s_11       s_22       s_33      s_12      VM      e_1      e_2      e_3      s_1      s_2      s_3 
-0.0000  0.0000  0.0000 -0.0000 -551.7958 -25.1382 -173.0802 -358.5458 779.1057  0.0000  0.0000 -0.0001 156.3894 -173.0802 -733.3233
Element 23
e_11      e_22      e_33     e_12      s_11       s_22       s_33      s_12      VM      e_1      e_2      e_3      s_1      s_2      s_3 
-0.0001  0.0000  0.0000 -0.0000 -1069.9098 -2.1470 -321.6170 -285.1371 1070.0327  0.0001  0.0000 -0.0001 69.2257 -321.6170 -1141.2825
Element 24
e_11      e_22      e_33     e_12      s_11       s_22       s_33      s_12      VM      e_1      e_2      e_3      s_1      s_2      s_3 
 0.0001 -0.0000  0.0000 -0.0000 1437.2074 81.4400 455.5942 -154.2655 1241.8631  0.0001  0.0000 -0.0001 1454.5388 455.5942 64.1086
Element 25
e_11      e_22      e_33     e_12      s_11       s_22       s_33      s_12      VM      e_1      e_2      e_3      s_1      s_2      s_3 
 0.0001 -0.0001  0.0000 -0.0000 1496.0808 80.6561 473.0211 -70.6666 1271.6114  0.0001  0.0000 -0.0001 1499.6001 473.0211 77.1368
Element 26
e_11      e_22      e_33     e_12      s_11       s_22       s_33      s_12      VM      e_1      e_2      e_3      s_1      s_2      s_3 
 0.0000  0.0000  0.0000 -0.0000 63.9994 53.2383 35.1713 -295.8445 513.0385  0.0000  0.0000 -0.0000 354.5122 35.1713 -237.2745
Element 27
e_11      e_22      e_33     e_12      s_11       s_22       s_33      s_12      VM      e_1      e_2      e_3      s_1      s_2      s_3 
 0.0001 -0.0000  0.0000 -0.0000 1010.7391 39.7969 315.1608 -128.9778 895.0405  0.0001  0.0000 -0.0000 1027.5802 315.1608 22.9559
Element 28
e_11      e_22      e_33     e_12      s_11       s_22       s_33      s_12      VM      e_1      e_2      e_3      s_1      s_2      s_3 
-0.0001  0.0000  0.0000 -0.0000 -1085.7254 -21.1066 -332.0496 -65.6824 954.9898  0.0000  0.0000 -0.0001 -17.0696 -332.0496 -1089.7624
Element 29
e_11      e_22      e_33     e_12      s_11       s_22       s_33      s_12      VM      e_1      e_2      e_3      s_1      s_2      s_3 
-0.0001  0.0001  0.0000 -0.0000 -1506.8866 -6.5452 -454.0295 -187.8431 1373.2234  0.0001  0.0000 -0.0001 16.6153 -454.0295 -1530.0471
Element 30
e_11      e_22      e_33     e_12      s_11       s_22       s_33      s_12      VM      e_1      e_2      e_3      s_1      s_2      s_3 
-0.0000  0.0000  0.0000 -0.0000 -491.0192 -1.6403 -147.7978 -215.4846 573.2609  0.0000  0.0000 -0.0001 79.7171 -147.7978 -572.3766
Element 31
e_11      e_22      e_33     e_12      s_11       s_22       s_33      s_12      VM      e_1      e_2      e_3      s_1      s_2      s_3 
-0.0000  0.0000  0.0000 -0.0000 -505.6410 -39.3962 -163.5111 -338.7107 720.4829  0.0000  0.0000 -0.0001 138.6639 -163.5111 -683.7010
Element 32
e_11      e_22      e_33     e_12      s_11       s_22       s_33      s_12      VM      e_1      e_2      e_3      s_1      s_2      s_3 
 0.0000 -0.0000  0.0000 -0.0000 27.7947 -25.9697  0.5475 -312.6497 543.5232  0.0000  0.0000 -0.0000 314.7157  0.5475 -312.8907
Element 33
e_11      e_22      e_33     e_12      s_11       s_22       s_33      s_12      VM      e_1      e_2      e_3      s_1      s_2      s_3 
 0.0001 -0.0000  0.0000 -0.0000 622.1817 59.2362 204.4254 -245.4332 661.0343  0.0001  0.0000 -0.0000 714.1583 204.4254 -32.7403
Element 34
e_11      e_22      e_33     e_12      s_11       s_22       s_33      s_12      VM      e_1      e_2      e_3      s_1      s_2      s_3 
 0.0001 -0.0000  0.0000 -0.0000 738.2028 -2.1420 220.8182 -329.6080 871.0216  0.0001  0.0000 -0.0000 863.6805 220.8182 -127.6197
Element 35
e_11      e_22      e_33     e_12      s_11       s_22       s_33      s_12      VM      e_1      e_2      e_3      s_1      s_2      s_3 
 0.0000 -0.0000  0.0000 -0.0000 119.2205 -33.1350 25.8256 -354.7657 628.7144  0.0000  0.0000 -0.0000 405.8950 25.8256 -319.8095
Element 36
e_11      e_22      e_33     e_12      s_11       s_22       s_33      s_12      VM      e_1      e_2      e_3      s_1      s_2      s_3 
 0.0000 -0.0000  0.0000 -0.0000 138.6626 24.9393 49.0806 -339.6973 597.4556  0.0000  0.0000 -0.0000 426.2244 49.0806 -262.6225
Element 37
e_11      e_22      e_33     e_12      s_11       s_22       s_33      s_12      VM      e_1      e_2      e_3      s_1      s_2      s_3 
 0.0001 -0.0000  0.0000 -0.0000 629.6588 26.4727 196.8395 -342.3697 801.0908  0.0001  0.0000 -0.0000 784.3282 196.8395 -128.1967
Element 38
e_11      e_22      e_33     e_12      s_11       s_22       s_33      s_12      VM      e_1      e_2      e_3      s_1      s_2      s_3 
 0.0001 -0.0000  0.0000 -0.0000 724.3970 53.8301 233.4681 -133.1469 643.9369  0.0001  0.0000 -0.0000 749.8671 233.4681 28.3601
Element 39
e_11      e_22      e_33     e_12      s_11       s_22       s_33      s_12      VM      e_1      e_2      e_3      s_1      s_2      s_3 
 0.0000 -0.0000  0.0000 -0.0000 115.8884 -111.1409  1.4243 -351.0252 638.9943  0.0000  0.0000 -0.0000 371.2969  1.4243 -366.5493
Element 40
e_11      e_22      e_33     e_12      s_11       s_22       s_33      s_12      VM      e_1      e_2      e_3      s_1      s_2      s_3 
 0.0000 -0.0000  0.0000 -0.0000 150.9485 18.8194 50.9304 -306.8394 544.6995  0.0000  0.0000 -0.0000 398.7548 50.9304 -228.9869
Element 41
e_11      e_22      e_33     e_12      s_11       s_22       s_33      s_12      VM      e_1      e_2      e_3      s_1      s_2      s_3 
 0.0001 -0.0000  0.0000 -0.0000 616.5392 31.7150 194.4763 -261.9009 692.1705  0.0001  0.0000 -0.0000 716.6789 194.4763 -68.4247
Element 42
e_11      e_22      e_33     e_12      s_11       s_22       s_33      s_12      VM      e_1      e_2      e_3      s_1      s_2      s_3 
-0.0001  0.0000  0.0000 -0.0000 -874.5006 -21.4966 -268.7992 -328.4491 949.4529  0.0000  0.0000 -0.0001 90.3161 -268.7992 -986.3134
Element 43
e_11      e_22      e_33     e_12      s_11       s_22       s_33      s_12      VM      e_1      e_2      e_3      s_1      s_2      s_3 
-0.0000  0.0000  0.0000 -0.0000 -388.9222 -26.1070 -124.5088 -228.0512 511.5058  0.0000  0.0000 -0.0000 83.8890 -124.5088 -498.9182
Element 44
e_11      e_22      e_33     e_12      s_11       s_22       s_33      s_12      VM      e_1      e_2      e_3      s_1      s_2      s_3 
-0.0001  0.0000  0.0000 -0.0000 -905.8054 14.2495 -267.4668 -51.8985 821.4323  0.0000  0.0000 -0.0001 17.1678 -267.4668 -908.7236
Element 45
e_11      e_22      e_33     e_12      s_11       s_22       s_33      s_12      VM      e_1      e_2      e_3      s_1      s_2      s_3 
-0.0001  0.0000  0.0000 -0.0000 -1144.6965 -19.4432 -349.2419 -170.4734 1044.5279  0.0000  0.0000 -0.0001  5.8161 -349.2419 -1169.9558
Element 46
e_11      e_22      e_33     e_12      s_11       s_22       s_33      s_12      VM      e_1      e_2      e_3      s_1      s_2      s_3 
 0.0001 -0.0000  0.0000 -0.0000 570.3552 -57.2597 153.9286 -239.0386 690.9228  0.0001  0.0000 -0.0000 651.0278 153.9286 -137.9324
Element 47
e_11      e_22      e_33     e_12      s_11       s_22       s_33      s_12      VM      e_1      e_2      e_3      s_1      s_2      s_3 
 0.0000 -0.0000  0.0000 -0.0000 149.8485 -37.8643 33.5953 -314.0598 568.1808  0.0000  0.0000 -0.0000 383.7765 33.5953 -271.7923
Element 48
e_11      e_22      e_33     e_12      s_11       s_22       s_33      s_12      VM      e_1      e_2      e_3      s_1      s_2      s_3 
 0.0000 -0.0000  0.0000 -0.0000 530.3124 40.3885 171.2103 -257.0203 625.4801  0.0001  0.0000 -0.0000 640.4079 171.2103 -69.7070
Element 49
e_11      e_22      e_33     e_12      s_11       s_22       s_33      s_12      VM      e_1      e_2      e_3      s_1      s_2      s_3 
 0.0000 -0.0000  0.0000 -0.0000 171.1410 24.0144 58.5466 -303.9890 543.1262  0.0000  0.0000 -0.0000 410.3411 58.5466 -215.1856
Element 50
e_11      e_22      e_33     e_12      s_11       s_22       s_33      s_12      VM      e_1      e_2      e_3      s_1      s_2      s_3 
-0.0000  0.0000  0.0000 -0.0000 -109.4998 -9.9468 -35.8340 -342.5193 599.9685  0.0000  0.0000 -0.0000 286.3940 -35.8340 -405.8405
Element 51
e_11      e_22      e_33     e_12      s_11       s_22       s_33      s_12      VM      e_1      e_2      e_3      s_1      s_2      s_3 
 0.0000 -0.0000  0.0000 -0.0000 170.6464 11.5765 54.6669 -311.8196 558.5696  0.0000  0.0000 -0.0000 412.9146 54.6669 -230.6917
Element 52
e_11      e_22      e_33     e_12      s_11       s_22       s_33      s_12      VM      e_1      e_2      e_3      s_1      s_2      s_3 
-0.0000  0.0000  0.0000 -0.0000 -129.7563 11.0922 -35.5992 -273.8867 490.3914  0.0000  0.0000 -0.0000 223.4638 -35.5992 -342.1279
Element 53
e_11      e_22      e_33     e_12      s_11       s_22       s_33      s_12      VM      e_1      e_2      e_3      s_1      s_2      s_3 
-0.0000  0.0000  0.0000 -0.0000 -208.6502 -29.1774 -71.3483 -353.1496 632.9015  0.0000  0.0000 -0.0001 245.4586 -71.3483 -483.2862
Element 54
e_11      e_22      e_33     e_12      s_11       s_22       s_33      s_12      VM      e_1      e_2      e_3      s_1      s_2      s_3 
-0.0000  0.0000  0.0000 -0.0000 -218.6019 31.1525 -56.2348 -270.0926 516.7577  0.0000  0.0000 -0.0000 203.8393 -56.2348 -391.2887
Element 55
e_11      e_22      e_33     e_12      s_11       s_22       s_33      s_12      VM      e_1      e_2      e_3      s_1      s_2      s_3 
-0.0000  0.0000  0.0000 -0.0000 -457.5564  1.1394 -136.9251 -302.3522 663.6148  0.0000  0.0000 -0.0001 151.2876 -136.9251 -607.7046
Element 56
e_11      e_22      e_33     e_12      s_11       s_22       s_33      s_12      VM      e_1      e_2      e_3      s_1      s_2      s_3 
-0.0000  0.0000  0.0000 -0.0000 -494.4615 29.5842 -139.4632 -167.3611 546.4811  0.0000  0.0000 -0.0001 78.4725 -139.4632 -543.3497
Element 57
e_11      e_22      e_33     e_12      s_11       s_22       s_33      s_12      VM      e_1      e_2      e_3      s_1      s_2      s_3 
-0.0001  0.0000  0.0000 -0.0000 -596.8593 -19.3325 -184.8575 -318.6807 754.9920  0.0000  0.0000 -0.0001 121.9526 -184.8575 -738.1444
Element 58
e_11      e_22      e_33     e_12      s_11       s_22       s_33      s_12      VM      e_1      e_2      e_3      s_1      s_2      s_3 
 0.0000 -0.0000  0.0000 -0.0000 144.4716 -29.2116 34.5780 -289.3318 523.7312  0.0000  0.0000 -0.0000 359.7133 34.5780 -244.4533
Element 59
e_11      e_22      e_33     e_12      s_11       s_22       s_33      s_12      VM      e_1      e_2      e_3      s_1      s_2      s_3 
 0.0000 -0.0000  0.0000 -0.0000 388.7799 25.0599 124.1520 -251.2024 543.4865  0.0001  0.0000 -0.0000 517.0420 124.1520 -103.2021
Element 60
e_11      e_22      e_33     e_12      s_11       s_22       s_33      s_12      VM      e_1      e_2      e_3      s_1      s_2      s_3 
 0.0000 -0.0000  0.0000 -0.0000 106.0373 -18.6200 26.2252 -280.8291 498.5531  0.0000  0.0000 -0.0000 331.3713 26.2252 -243.9541
Element 61
e_11      e_22      e_33     e_12      s_11       s_22       s_33      s_12      VM      e_1      e_2      e_3      s_1      s_2      s_3 
 0.0000 -0.0000  0.0000 -0.0000 132.7547  4.5525 41.1922 -315.7918 558.7972  0.0000  0.0000 -0.0000 390.8855 41.1922 -253.5783
Element 62
e_11      e_22      e_33     e_12      s_11       s_22       s_33      s_12      VM      e_1      e_2      e_3      s_1      s_2      s_3 
 0.0000 -0.0000  0.0000 -0.0000 268.4171 68.0668 100.9452 -230.5766 440.6027  0.0000  0.0000 -0.0000 419.6393 100.9452 -83.1554
Element 63
e_11      e_22      e_33     e_12      s_11       s_22       s_33      s_12      VM      e_1      e_2      e_3      s_1      s_2      s_3 
-0.0000 -0.0000  0.0000 -0.0000 -39.4680 -26.9393 -19.9222 -249.9366 433.2424  0.0000  0.0000 -0.0000 216.8114 -19.9222 -283.2187
Element 64
e_11      e_22      e_33     e_12      s_11       s_22       s_33      s_12      VM      e_1      e_2      e_3      s_1      s_2      s_3 
 0.0000  0.0000  0.0000 -0.0000 158.4555 197.5242 106.7939 -159.2802 286.9220  0.0000  0.0000 -0.0000 338.4635 106.7939 17.5162
Element 65
e_11      e_22      e_33     e_12      s_11       s_22       s_33      s_12      VM      e_1      e_2      e_3      s_1      s_2      s_3 
 0.0000 -0.0000  0.0000 -0.0000 201.6634 -9.7696 57.5681 -144.4637 312.4263  0.0000  0.0000 -0.0000 274.9602 57.5681 -83.0664
Element 66
e_11      e_22      e_33     e_12      s_11       s_22       s_33      s_12      VM      e_1      e_2      e_3      s_1      s_2      s_3 
 0.0000 -0.0000  0.0000 -0.0000 139.4398 21.2588 48.2096 -122.4627 237.6960  0.0000  0.0000 -0.0000 216.3229 48.2096 -55.6242
Element 67
e_11      e_22      e_33     e_12      s_11       s_22       s_33      s_12      VM      e_1      e_2      e_3      s_1      s_2      s_3 
 0.0000 -0.0000  0.0000 -0.0000 317.1775 -84.2450 69.8797 -187.2011 477.6590  0.0000  0.0000 -0.0000 390.9280 69.8797 -157.9955
Element 68
e_11      e_22      e_33     e_12      s_11       s_22       s_33      s_12      VM      e_1      e_2      e_3      s_1      s_2      s_3 
-0.0000  0.0000  0.0000 -0.0000 -75.0729 -23.7807 -29.6561 -340.3232 591.4589  0.0000  0.0000 -0.0000 291.8613 -29.6561 -390.7149
Element 69
e_11      e_22      e_33     e_12      s_11       s_22       s_33      s_12      VM      e_1      e_2      e_3      s_1      s_2      s_3 
-0.0000  0.0000  0.0000 -0.0000 -72.5623 23.1926 -14.8109 -291.2449 511.3170  0.0000  0.0000 -0.0000 270.4691 -14.8109 -319.8388
Element 70
e_11      e_22      e_33     e_12      s_11       s_22       s_33      s_12      VM      e_1      e_2      e_3      s_1      s_2      s_3 
 0.0001 -0.0000  0.0000 -0.0000 584.3733 -173.2654 123.3324 -364.8981 914.7265  0.0001  0.0000 -0.0001 731.5337 123.3324 -320.4259
Element 71
e_11      e_22      e_33     e_12      s_11       s_22       s_33      s_12      VM      e_1      e_2      e_3      s_1      s_2      s_3 
 0.0001 -0.0001  0.0000 -0.0000 1393.3041 -367.1554 307.8446 -281.7091 1613.8812  0.0001  0.0000 -0.0001 1437.2845 307.8446 -411.1358
Element 72
e_11      e_22      e_33     e_12      s_11       s_22       s_33      s_12      VM      e_1      e_2      e_3      s_1      s_2      s_3 
 0.0001 -0.0001  0.0000 -0.0000 1385.1922 -134.5177 375.2023 -201.7156 1384.4759  0.0001  0.0000 -0.0001 1411.5107 375.2023 -160.8362
Element 73
e_11      e_22      e_33     e_12      s_11       s_22       s_33      s_12      VM      e_1      e_2      e_3      s_1      s_2      s_3 
 0.0002 -0.0001  0.0000 -0.0000 2187.3798 -8.1848 653.7585 -168.6779 1972.4832  0.0002  0.0000 -0.0001 2200.2631 653.7585 -21.0681
Element 74
e_11      e_22      e_33     e_12      s_11       s_22       s_33      s_12      VM      e_1      e_2      e_3      s_1      s_2      s_3 
 0.0000 -0.0000  0.0000 -0.0000 430.2714 -166.3088 79.1888 -220.7001 644.8593  0.0001  0.0000 -0.0000 503.0413 79.1888 -239.0786
Element 75
e_11      e_22      e_33     e_12      s_11       s_22       s_33      s_12      VM      e_1      e_2      e_3      s_1      s_2      s_3 
-0.0000  0.0000  0.0000 -0.0000 -325.8928 -34.0643 -107.9871 -363.9635 682.9816  0.0000  0.0000 -0.0001 212.1444 -107.9871 -572.1014
Element 76
e_11      e_22      e_33     e_12      s_11       s_22       s_33      s_12      VM      e_1      e_2      e_3      s_1      s_2      s_3 
-0.0000  0.0000  0.0000 -0.0000 -366.8961 -24.5901 -117.4459 -303.7141 608.8820  0.0000  0.0000 -0.0001 152.8765 -117.4459 -544.3627
Element 77
e_11      e_22      e_33     e_12      s_11       s_22       s_33      s_12      VM      e_1      e_2      e_3      s_1      s_2      s_3 
-0.0000  0.0000  0.0000 -0.0000 -296.4263 68.4421 -68.3953 -176.0234 441.4505  0.0000  0.0000 -0.0000 139.5162 -68.3953 -367.5004
Element 78
e_11      e_22      e_33     e_12      s_11       s_22       s_33      s_12      VM      e_1      e_2      e_3      s_1      s_2      s_3 
-0.0000  0.0000  0.0000 -0.0000 -172.6804  2.7876 -50.9678 -305.7609 552.0104  0.0000  0.0000 -0.0000 233.1526 -50.9678 -403.0454
Element 79
e_11      e_22      e_33     e_12      s_11       s_22       s_33      s_12      VM      e_1      e_2      e_3      s_1      s_2      s_3 
-0.0000 -0.0000  0.0000 -0.0000 -32.8247 -33.5541 -19.9136 -314.6368 545.1290  0.0000  0.0000 -0.0000 281.4477 -19.9136 -347.8264
Element 80
e_11      e_22      e_33     e_12      s_11       s_22       s_33      s_12      VM      e_1      e_2      e_3      s_1      s_2      s_3 
-0.0000  0.0000  0.0000 -0.0000 -200.9986 -4.0917 -61.5271 -167.9928 339.7447  0.0000  0.0000 -0.0000 92.1718 -61.5271 -297.2620
Element 81
e_11      e_22      e_33     e_12      s_11       s_22       s_33      s_12      VM      e_1      e_2      e_3      s_1      s_2      s_3 
 0.0001 -0.0001  0.0000 -0.0000 1178.5770 -47.4250 339.3456 -236.7542 1160.4519  0.0001  0.0000 -0.0001 1222.7083 339.3456 -91.5563
Element 82
e_11      e_22      e_33     e_12      s_11       s_22       s_33      s_12      VM      e_1      e_2      e_3      s_1      s_2      s_3 
-0.0000  0.0000  0.0000 -0.0000 -5.7286 13.3456  2.2851 -338.5385 586.6004  0.0000  0.0000 -0.0000 342.4813  2.2851 -334.8642
Element 83
e_11      e_22      e_33     e_12      s_11       s_22       s_33      s_12      VM      e_1      e_2      e_3      s_1      s_2      s_3 
 0.0000 -0.0000  0.0000 -0.0000 515.9043 10.1966 157.8303 -141.5266 512.8019  0.0001  0.0000 -0.0000 552.8173 157.8303 -26.7164
Element 84
e_11      e_22      e_33     e_12      s_11       s_22       s_33      s_12      VM      e_1      e_2      e_3      s_1      s_2      s_3 
 0.0001 -0.0001  0.0000 -0.0000 1054.3647 -100.3521 286.2038 -119.0814 1038.7372  0.0001  0.0000 -0.0001 1066.5172 286.2038 -112.5046
Element 85
e_11      e_22      e_33     e_12      s_11       s_22       s_33      s_12      VM      e_1      e_2      e_3      s_1      s_2      s_3 
 0.0001 -0.0001  0.0000 -0.0000 1431.8279 15.0868 434.0744 -122.7136 1278.3915  0.0001  0.0000 -0.0001 1442.3784 434.0744  4.5363
Element 86
e_11      e_22      e_33     e_12      s_11       s_22       s_33      s_12      VM      e_1      e_2      e_3      s_1      s_2      s_3 
 0.0002 -0.0001  0.0000 -0.0000 1915.2983 10.3113 577.6829 -50.8193 1696.4075  0.0002  0.0000 -0.0001 1916.6531 577.6829  8.9566
Element 87
e_11      e_22      e_33     e_12      s_11       s_22       s_33      s_12      VM      e_1      e_2      e_3      s_1      s_2      s_3 
 0.0001 -0.0000  0.0000 -0.0000 833.4976 39.4439 261.8824 -109.9368 734.5953  0.0001  0.0000 -0.0000 848.4372 261.8824 24.5042
Element 88
e_11      e_22      e_33     e_12      s_11       s_22       s_33      s_12      VM      e_1      e_2      e_3      s_1      s_2      s_3 
-0.0001  0.0000  0.0000 -0.0000 -756.2409 -35.4684 -237.5128 -67.9933 654.6572  0.0000  0.0000 -0.0001 -29.1104 -237.5128 -762.5989
Element 89
e_11      e_22      e_33     e_12      s_11       s_22       s_33      s_12      VM      e_1      e_2      e_3      s_1      s_2      s_3 
 0.0001 -0.0000  0.0000 -0.0000 1095.8573 106.3591 360.6649 -102.2236 907.4646  0.0001  0.0000 -0.0000 1106.3075 360.6649 95.9089
Element 90
e_11      e_22      e_33     e_12      s_11       s_22       s_33      s_12      VM      e_1      e_2      e_3      s_1      s_2      s_3 
-0.0001  0.0000  0.0000 -0.0000 -771.7626 -46.4965 -245.4777 -133.9933 689.3132  0.0000  0.0000 -0.0001 -22.5329 -245.4777 -795.7262
Element 91
e_11      e_22      e_33     e_12      s_11       s_22       s_33      s_12      VM      e_1      e_2      e_3      s_1      s_2      s_3 
-0.0000  0.0000  0.0000 -0.0000 -474.0563 -4.9056 -143.6886 -153.2657 494.6960  0.0000  0.0000 -0.0000 40.7261 -143.6886 -519.6880
Element 92
e_11      e_22      e_33     e_12      s_11       s_22       s_33      s_12      VM      e_1      e_2      e_3      s_1      s_2      s_3 
-0.0000  0.0000  0.0000 -0.0000 -157.9577 -42.3201 -60.0833 -121.2109 236.0291  0.0000  0.0000 -0.0000 34.1559 -60.0833 -234.4338
Element 93
e_11      e_22      e_33     e_12      s_11       s_22       s_33      s_12      VM      e_1      e_2      e_3      s_1      s_2      s_3 
 0.0000 -0.0000  0.0000 -0.0000 -67.1084 -166.5598 -70.1005 -178.7497 324.7405  0.0000  0.0000 -0.0000 68.7033 -70.1005 -302.3715
Element 94
e_11      e_22      e_33     e_12      s_11       s_22       s_33      s_12      VM      e_1      e_2      e_3      s_1      s_2      s_3 
 0.0000 -0.0000  0.0000 -0.0000 -15.1244 -47.6867 -18.8433 -307.9374 534.2559  0.0000  0.0000 -0.0000 276.9619 -18.8433 -339.7730
Element 95
e_11      e_22      e_33     e_12      s_11       s_22       s_33      s_12      VM      e_1      e_2      e_3      s_1      s_2      s_3 
 0.0000  0.0000  0.0000 -0.0000 60.4942 53.7501 34.2733 -313.4451 543.4148  0.0000  0.0000 -0.0000 370.5853 34.2733 -256.3411
Element 96
e_11      e_22      e_33     e_12      s_11       s_22       s_33      s_12      VM      e_1      e_2      e_3      s_1      s_2      s_3 
 0.0002 -0.0001  0.0000 -0.0000 2378.0381 -1.5172 712.9563 -51.5237 2116.7407  0.0002  0.0000 -0.0001 2379.1532 712.9563 -2.6323
