********************************************************
*                      VEMLab 1.0                      *
*      http://camlab.cl/research/software/vemlab       *
*------------------------------------------------------*
*               Linear Elastostatics                   *
********************************************************

Mesh filename: cantilever_beam_t3_hsize_08.txt
Method: FEM2DT3
Date: 4-1-2018
Time: 17:54 hrs

Nodal Displacements: 
 Node      Coords         u1       u2 
1 -0.00000000 -1.20057321 0.00010510 -0.00004216
2 -0.00000000 0.41912677 -0.00004036 -0.00000514
3 0.00000000 -2.00000000 0.00013975 -0.00011700
4 0.00000000 2.00000000 -0.00013975 -0.00011700
5 0.00000000 1.21513145 -0.00010608 -0.00004319
6 0.00000000 -0.37644480 0.00003633 -0.00000415
7 0.67364574 -0.43506180 0.00000684 -0.00002688
8 0.67917403 2.00000000 0.00002386 -0.00012694
9 0.72879977 -2.00000000 -0.00003215 -0.00012865
10 0.74282230 1.15673599 0.00000148 -0.00006550
11 0.92807800 0.36574595 0.00000409 -0.00005339
12 0.93558279 -1.21840297 -0.00003113 -0.00008591
13 1.36493981 2.00000000 0.00017283 -0.00019669
14 1.46556988 -0.41935527 -0.00003064 -0.00012721
15 1.51984173 -2.00000000 -0.00020621 -0.00022061
16 1.52802267 1.16473216 0.00010140 -0.00016494
17 1.82795327 0.37407606 0.00004082 -0.00019482
18 1.83437174 -1.20577945 -0.00014373 -0.00022310
19 2.08784247 2.00000000 0.00031642 -0.00032711
20 2.30098171 -0.41293719 -0.00006390 -0.00030225
21 2.33718130 -2.00000000 -0.00036525 -0.00038516
22 2.34383098 1.17182175 0.00019439 -0.00033599
23 2.70478527 0.37834575 0.00007162 -0.00040974
24 2.70845246 -1.20272330 -0.00023927 -0.00043444
25 2.84076828 2.00000000 0.00045000 -0.00051599
26 3.14898280 -0.41046721 -0.00009307 -0.00054487
27 3.16636506 -2.00000000 -0.00050471 -0.00061388
28 3.17028037 1.17636545 0.00027641 -0.00057122
29 3.56948947 0.38069020 0.00009738 -0.00068606
30 3.57064254 -1.20197034 -0.00031969 -0.00070648
31 3.61162626 2.00000000 0.00056846 -0.00075806
32 4.00000000 1.17799809 0.00034566 -0.00086088
33 4.00000000 -0.40972898 -0.00011780 -0.00084468
34 4.00000000 -2.00000000 -0.00062273 -0.00089730
35 4.38837374 2.00000000 0.00066850 -0.00104432
36 4.42935746 -1.20197034 -0.00038584 -0.00102994
37 4.43051053 0.38069020 0.00011811 -0.00101427
38 4.82971963 1.17636545 0.00040100 -0.00119481
39 4.83363494 -2.00000000 -0.00071849 -0.00122521
40 4.85101720 -0.41046721 -0.00013815 -0.00119104
41 5.15923172 2.00000000 0.00074836 -0.00136300
42 5.29154754 -1.20272330 -0.00043824 -0.00139721
43 5.29521473 0.37834575 0.00013366 -0.00138671
44 5.65616902 1.17182175 0.00044198 -0.00156229
45 5.66281869 -2.00000000 -0.00079156 -0.00158631
46 5.69901829 -0.41293719 -0.00015430 -0.00157261
47 5.91215753 2.00000000 0.00080751 -0.00170045
48 6.16562826 -1.20577945 -0.00047770 -0.00180241
49 6.17204673 0.37407606 0.00014404 -0.00179742
50 6.47197733 1.16473216 0.00046850 -0.00195026
51 6.48015827 -2.00000000 -0.00084182 -0.00196730
52 6.53443011 -0.41935527 -0.00016717 -0.00197443
53 6.63506019 2.00000000 0.00084660 -0.00204244
54 7.06441720 -1.21840297 -0.00050711 -0.00224220
55 7.07192200 0.36574595 0.00014833 -0.00224205
56 7.25717769 1.15673599 0.00048154 -0.00233891
57 7.27120023 -2.00000000 -0.00086983 -0.00235199
58 7.32082597 2.00000000 0.00086781 -0.00237754
59 7.32635426 -0.43506180 -0.00017915 -0.00237053
60 8.00000000 -0.37644480 -0.00015579 -0.00271230
61 8.00000000 1.21513145 0.00051299 -0.00271304
62 8.00000000 -1.20057321 -0.00050828 -0.00271217
63 8.00000000 0.41912677 0.00017347 -0.00271131
64 8.00000000 -2.00000000 -0.00087814 -0.00271574
65 8.00000000 2.00000000 0.00087512 -0.00271603
Strains, Stresses, Principal Strains and Principal Stresses: 
(quantities are constant in the element)

Element 1
e_11      e_22      e_33     e_12      s_11       s_22       s_33      s_12      VM      e_1      e_2      e_3      s_1      s_2      s_3 
-0.0002  0.0001  0.0000 -0.0000 -2634.9549 -100.5107 -820.6397 -228.1396 2296.3035  0.0001  0.0000 -0.0002 -80.1383 -820.6397 -2655.3273
Element 2
e_11      e_22      e_33     e_12      s_11       s_22       s_33      s_12      VM      e_1      e_2      e_3      s_1      s_2      s_3 
 0.0000 -0.0000  0.0000 -0.0000 300.1980 -46.8963 75.9905 -307.2491 613.2931  0.0001  0.0000 -0.0000 479.5257 75.9905 -226.2240
Element 3
e_11      e_22      e_33     e_12      s_11       s_22       s_33      s_12      VM      e_1      e_2      e_3      s_1      s_2      s_3 
 0.0000 -0.0000  0.0000 -0.0000 343.1060 52.2204 118.5979 -362.7523 681.5275  0.0001  0.0000 -0.0000 588.4865 118.5979 -193.1601
Element 4
e_11      e_22      e_33     e_12      s_11       s_22       s_33      s_12      VM      e_1      e_2      e_3      s_1      s_2      s_3 
 0.0000 -0.0000  0.0000 -0.0000 354.8361 -51.3373 91.0497 -287.3081 612.4173  0.0001  0.0000 -0.0000 503.5877 91.0497 -200.0888
Element 5
e_11      e_22      e_33     e_12      s_11       s_22       s_33      s_12      VM      e_1      e_2      e_3      s_1      s_2      s_3 
 0.0001 -0.0000  0.0000 -0.0000 1111.0533 75.7618 356.0445 -327.1452 1086.8691  0.0001  0.0000 -0.0000 1205.7646 356.0445 -18.9494
Element 6
e_11      e_22      e_33     e_12      s_11       s_22       s_33      s_12      VM      e_1      e_2      e_3      s_1      s_2      s_3 
 0.0002 -0.0001  0.0000 -0.0000 2459.7727 169.0764 788.6547 -226.0685 2089.3113  0.0002  0.0000 -0.0001 2481.8702 788.6547 146.9789
Element 7
e_11      e_22      e_33     e_12      s_11       s_22       s_33      s_12      VM      e_1      e_2      e_3      s_1      s_2      s_3 
 0.0000 -0.0000  0.0000 -0.0000 400.4534 53.0303 136.0451 -351.3020 684.8302  0.0001  0.0000 -0.0000 618.6460 136.0451 -165.1622
Element 8
e_11      e_22      e_33     e_12      s_11       s_22       s_33      s_12      VM      e_1      e_2      e_3      s_1      s_2      s_3 
-0.0000  0.0000  0.0000 -0.0000 -411.7653 -64.6907 -142.9368 -373.2440 719.2769  0.0000  0.0000 -0.0001 173.3863 -142.9368 -649.8422
Element 9
e_11      e_22      e_33     e_12      s_11       s_22       s_33      s_12      VM      e_1      e_2      e_3      s_1      s_2      s_3 
-0.0002  0.0001  0.0000 -0.0000 -2177.5820 -91.5868 -680.7506 -175.3910 1887.2686  0.0001  0.0000 -0.0002 -76.9427 -680.7506 -2192.2261
Element 10
e_11      e_22      e_33     e_12      s_11       s_22       s_33      s_12      VM      e_1      e_2      e_3      s_1      s_2      s_3 
 0.0000 -0.0000  0.0000 -0.0000 45.8584 17.3430 18.9604 -367.5593 637.2355  0.0000  0.0000 -0.0000 399.4364 18.9604 -336.2350
Element 11
e_11      e_22      e_33     e_12      s_11       s_22       s_33      s_12      VM      e_1      e_2      e_3      s_1      s_2      s_3 
-0.0000  0.0000  0.0000 -0.0000 -299.2536 52.9632 -73.8871 -313.8231 625.2388  0.0000  0.0000 -0.0001 236.7147 -73.8871 -483.0050
Element 12
e_11      e_22      e_33     e_12      s_11       s_22       s_33      s_12      VM      e_1      e_2      e_3      s_1      s_2      s_3 
-0.0000  0.0000  0.0000 -0.0000 -343.5361 -50.6834 -118.2658 -369.2406 692.4986  0.0000  0.0000 -0.0001 200.1047 -118.2658 -594.3242
Element 13
e_11      e_22      e_33     e_12      s_11       s_22       s_33      s_12      VM      e_1      e_2      e_3      s_1      s_2      s_3 
 0.0002 -0.0001  0.0000 -0.0000 1730.7823 98.1280 548.6731 -160.7003 1486.7549  0.0002  0.0000 -0.0001 1746.4495 548.6731 82.4608
Element 14
e_11      e_22      e_33     e_12      s_11       s_22       s_33      s_12      VM      e_1      e_2      e_3      s_1      s_2      s_3 
 0.0001 -0.0000  0.0000 -0.0000 1048.0497 -64.1212 295.1786 -132.5266 1009.5086  0.0001  0.0000 -0.0000 1063.6236 295.1786 -79.6950
Element 15
e_11      e_22      e_33     e_12      s_11       s_22       s_33      s_12      VM      e_1      e_2      e_3      s_1      s_2      s_3 
-0.0001  0.0000  0.0000 -0.0001 -421.0493 326.4489 -28.3801 -435.2856 993.9034  0.0001  0.0000 -0.0001 526.4262 -28.3801 -621.0266
Element 16
e_11      e_22      e_33     e_12      s_11       s_22       s_33      s_12      VM      e_1      e_2      e_3      s_1      s_2      s_3 
-0.0001 -0.0000  0.0000 -0.0001 -709.5453 -317.8100 -308.2066 -500.9574 954.0365  0.0000  0.0000 -0.0001 24.2094 -308.2066 -1051.5647
Element 17
e_11      e_22      e_33     e_12      s_11       s_22       s_33      s_12      VM      e_1      e_2      e_3      s_1      s_2      s_3 
-0.0002  0.0001  0.0000 -0.0000 -2469.2278 -119.3666 -776.5783 -218.2385 2133.6126  0.0001  0.0000 -0.0002 -99.2700 -776.5783 -2489.3244
Element 18
e_11      e_22      e_33     e_12      s_11       s_22       s_33      s_12      VM      e_1      e_2      e_3      s_1      s_2      s_3 
-0.0001  0.0001  0.0000 -0.0000 -1378.3921 42.5805 -400.7435 -94.0650 1269.7609  0.0001  0.0000 -0.0001 48.7803 -400.7435 -1384.5920
Element 19
e_11      e_22      e_33     e_12      s_11       s_22       s_33      s_12      VM      e_1      e_2      e_3      s_1      s_2      s_3 
-0.0001  0.0001  0.0000 -0.0000 -1565.1305 62.3533 -450.8331 -22.5515 1441.6612  0.0001  0.0000 -0.0001 62.6658 -450.8331 -1565.4429
Element 20
e_11      e_22      e_33     e_12      s_11       s_22       s_33      s_12      VM      e_1      e_2      e_3      s_1      s_2      s_3 
-0.0001  0.0001  0.0000 -0.0000 -1613.4723 -30.9723 -493.3334 -176.2992 1442.0964  0.0001  0.0000 -0.0001 -11.5695 -493.3334 -1632.8751
Element 21
e_11      e_22      e_33     e_12      s_11       s_22       s_33      s_12      VM      e_1      e_2      e_3      s_1      s_2      s_3 
 0.0000 -0.0000  0.0000 -0.0000 536.5410 50.9288 176.2409 -273.9885 644.8863  0.0001  0.0000 -0.0000 659.8285 176.2409 -72.3587
Element 22
e_11      e_22      e_33     e_12      s_11       s_22       s_33      s_12      VM      e_1      e_2      e_3      s_1      s_2      s_3 
 0.0000 -0.0000  0.0000 -0.0000 490.1941 -96.0577 118.2409 -175.2475 596.7555  0.0001  0.0000 -0.0000 538.5861 118.2409 -144.4497
Element 23
e_11      e_22      e_33     e_12      s_11       s_22       s_33      s_12      VM      e_1      e_2      e_3      s_1      s_2      s_3 
 0.0002 -0.0001  0.0000 -0.0000 2700.1766 123.7834 847.1880 -221.2796 2333.2885  0.0002  0.0000 -0.0001 2719.0435 847.1880 104.9165
Element 24
e_11      e_22      e_33     e_12      s_11       s_22       s_33      s_12      VM      e_1      e_2      e_3      s_1      s_2      s_3 
 0.0001 -0.0001  0.0000  0.0000 1553.1491 -164.9527 416.4589  6.5943 1513.6444  0.0001  0.0000 -0.0001 1553.1744 416.4589 -164.9780
Element 25
e_11      e_22      e_33     e_12      s_11       s_22       s_33      s_12      VM      e_1      e_2      e_3      s_1      s_2      s_3 
 0.0001 -0.0000  0.0000 -0.0001 1586.1642 154.4874 522.1955 -447.5343 1503.1066  0.0002  0.0000 -0.0001 1714.5482 522.1955 26.1033
Element 26
e_11      e_22      e_33     e_12      s_11       s_22       s_33      s_12      VM      e_1      e_2      e_3      s_1      s_2      s_3 
 0.0001 -0.0001  0.0000 -0.0000 1336.6758 -115.2087 366.4401 -61.0106 1285.2326  0.0001  0.0000 -0.0001 1339.2351 366.4401 -117.7680
Element 27
e_11      e_22      e_33     e_12      s_11       s_22       s_33      s_12      VM      e_1      e_2      e_3      s_1      s_2      s_3 
 0.0001 -0.0000  0.0000 -0.0000 1280.3567 91.4905 411.5542 -345.5524 1222.1089  0.0001  0.0000 -0.0001 1373.4970 411.5542 -1.6498
Element 28
e_11      e_22      e_33     e_12      s_11       s_22       s_33      s_12      VM      e_1      e_2      e_3      s_1      s_2      s_3 
 0.0000 -0.0000  0.0000 -0.0000 412.5190 -62.2606 105.0775 -250.7247 602.1276  0.0001  0.0000 -0.0000 520.4070 105.0775 -170.1487
Element 29
e_11      e_22      e_33     e_12      s_11       s_22       s_33      s_12      VM      e_1      e_2      e_3      s_1      s_2      s_3 
 0.0001 -0.0000  0.0000 -0.0000 1450.5635 128.6717 473.7706 -383.6589 1360.8418  0.0001  0.0000 -0.0001 1553.8451 473.7706 25.3901
Element 30
e_11      e_22      e_33     e_12      s_11       s_22       s_33      s_12      VM      e_1      e_2      e_3      s_1      s_2      s_3 
-0.0000  0.0000  0.0000 -0.0001 -486.4891 -92.9131 -173.8207 -388.3609 762.9399  0.0000  0.0000 -0.0001 145.6719 -173.8207 -725.0741
Element 31
e_11      e_22      e_33     e_12      s_11       s_22       s_33      s_12      VM      e_1      e_2      e_3      s_1      s_2      s_3 
 0.0000 -0.0000  0.0000 -0.0000 462.6990 50.0672 153.8299 -328.1322 679.1378  0.0001  0.0000 -0.0000 643.9873 153.8299 -131.2211
Element 32
e_11      e_22      e_33     e_12      s_11       s_22       s_33      s_12      VM      e_1      e_2      e_3      s_1      s_2      s_3 
-0.0000  0.0000  0.0000 -0.0001 -598.7448 -177.5677 -232.8938 -442.9054 863.5073  0.0000  0.0000 -0.0001 102.2648 -232.8938 -878.5773
Element 33
e_11      e_22      e_33     e_12      s_11       s_22       s_33      s_12      VM      e_1      e_2      e_3      s_1      s_2      s_3 
-0.0000  0.0000  0.0000 -0.0000 -412.6972 82.4291 -99.0804 -327.0234 713.4834  0.0000  0.0000 -0.0001 245.0267 -99.0804 -575.2948
Element 34
e_11      e_22      e_33     e_12      s_11       s_22       s_33      s_12      VM      e_1      e_2      e_3      s_1      s_2      s_3 
-0.0001  0.0001  0.0000 -0.0000 -1413.8547 -56.1932 -441.0144 -264.8299 1295.8703  0.0001  0.0000 -0.0001 -6.3635 -441.0144 -1463.6844
Element 35
e_11      e_22      e_33     e_12      s_11       s_22       s_33      s_12      VM      e_1      e_2      e_3      s_1      s_2      s_3 
-0.0000  0.0000  0.0000 -0.0000 -456.6745 164.4809 -87.6581 -365.0593 832.2233  0.0001  0.0000 -0.0001 333.2015 -87.6581 -625.3950
Element 36
e_11      e_22      e_33     e_12      s_11       s_22       s_33      s_12      VM      e_1      e_2      e_3      s_1      s_2      s_3 
-0.0001  0.0000  0.0000 -0.0000 -1233.5726 -60.9995 -388.3716 -294.5187 1165.5283  0.0001  0.0000 -0.0001  8.8185 -388.3716 -1303.3906
Element 37
e_11      e_22      e_33     e_12      s_11       s_22       s_33      s_12      VM      e_1      e_2      e_3      s_1      s_2      s_3 
-0.0001  0.0001  0.0000 -0.0000 -1187.6848 50.0083 -341.3030 -125.7565 1117.1972  0.0001  0.0000 -0.0001 62.6566 -341.3030 -1200.3331
Element 38
e_11      e_22      e_33     e_12      s_11       s_22       s_33      s_12      VM      e_1      e_2      e_3      s_1      s_2      s_3 
-0.0001  0.0000  0.0000 -0.0000 -1050.3591 -53.7920 -331.2453 -303.9913 1034.8225  0.0000  0.0000 -0.0001 31.6172 -331.2453 -1135.7683
Element 39
e_11      e_22      e_33     e_12      s_11       s_22       s_33      s_12      VM      e_1      e_2      e_3      s_1      s_2      s_3 
-0.0000  0.0000  0.0000 -0.0000 -357.1937 63.7551 -88.0316 -316.0877 660.3612  0.0000  0.0000 -0.0001 233.0318 -88.0316 -526.4704
Element 40
e_11      e_22      e_33     e_12      s_11       s_22       s_33      s_12      VM      e_1      e_2      e_3      s_1      s_2      s_3 
-0.0000  0.0000  0.0000 -0.0000 -127.7827 -5.7608 -40.0631 -140.1659 266.1199  0.0000  0.0000 -0.0000 86.0969 -40.0631 -219.6404
Element 41
e_11      e_22      e_33     e_12      s_11       s_22       s_33      s_12      VM      e_1      e_2      e_3      s_1      s_2      s_3 
-0.0000  0.0000  0.0000 -0.0000 -408.5177 -45.3097 -136.1482 -121.5690 389.2499  0.0000  0.0000 -0.0000 -8.3753 -136.1482 -445.4521
Element 42
e_11      e_22      e_33     e_12      s_11       s_22       s_33      s_12      VM      e_1      e_2      e_3      s_1      s_2      s_3 
-0.0000  0.0000  0.0000 -0.0000 -91.6579 43.4930 -14.4495 -157.9228 297.6759  0.0000  0.0000 -0.0000 147.6908 -14.4495 -195.8557
Element 43
e_11      e_22      e_33     e_12      s_11       s_22       s_33      s_12      VM      e_1      e_2      e_3      s_1      s_2      s_3 
-0.0000  0.0000  0.0000 -0.0000 -100.8640  2.6469 -29.4651 -310.0987 544.8902  0.0000  0.0000 -0.0000 265.2795 -29.4651 -363.4966
Element 44
e_11      e_22      e_33     e_12      s_11       s_22       s_33      s_12      VM      e_1      e_2      e_3      s_1      s_2      s_3 
 0.0000 -0.0000  0.0000 -0.0000 222.4315 34.8550 77.1860 -372.2361 666.8701  0.0001  0.0000 -0.0000 512.5130 77.1860 -255.2265
Element 45
e_11      e_22      e_33     e_12      s_11       s_22       s_33      s_12      VM      e_1      e_2      e_3      s_1      s_2      s_3 
-0.0000  0.0000  0.0000 -0.0000 -277.1922 -40.6833 -95.3627 -367.8982 672.3403  0.0000  0.0000 -0.0001 227.4988 -95.3627 -545.3743
Element 46
e_11      e_22      e_33     e_12      s_11       s_22       s_33      s_12      VM      e_1      e_2      e_3      s_1      s_2      s_3 
 0.0000 -0.0000  0.0000 -0.0000 283.9976 45.3393 98.8011 -368.5769 674.2430  0.0001  0.0000 -0.0000 552.0808 98.8011 -222.7439
Element 47
e_11      e_22      e_33     e_12      s_11       s_22       s_33      s_12      VM      e_1      e_2      e_3      s_1      s_2      s_3 
 0.0000 -0.0000  0.0000 -0.0000 373.9743 -57.0213 95.0859 -175.3065 485.3179  0.0000  0.0000 -0.0000 436.2744 95.0859 -119.3214
Element 48
e_11      e_22      e_33     e_12      s_11       s_22       s_33      s_12      VM      e_1      e_2      e_3      s_1      s_2      s_3 
-0.0001  0.0001  0.0000 -0.0000 -1581.6344 -60.2139 -492.5545 -140.0498 1379.3871  0.0001  0.0000 -0.0001 -47.4294 -492.5545 -1594.4188
Element 49
e_11      e_22      e_33     e_12      s_11       s_22       s_33      s_12      VM      e_1      e_2      e_3      s_1      s_2      s_3 
-0.0002  0.0001  0.0000 -0.0000 -1879.4771 -73.1072 -585.7753 -151.9062 1633.6949  0.0001  0.0000 -0.0002 -60.4217 -585.7753 -1892.1625
Element 50
e_11      e_22      e_33     e_12      s_11       s_22       s_33      s_12      VM      e_1      e_2      e_3      s_1      s_2      s_3 
-0.0001  0.0000  0.0000 -0.0000 -1006.0710 50.5031 -286.6704 -139.7602 965.6008  0.0000  0.0000 -0.0001 68.6775 -286.6704 -1024.2455
Element 51
e_11      e_22      e_33     e_12      s_11       s_22       s_33      s_12      VM      e_1      e_2      e_3      s_1      s_2      s_3 
-0.0001  0.0000  0.0000 -0.0000 -987.9186 -45.5296 -310.0345 -128.3434 870.7523  0.0000  0.0000 -0.0001 -28.3633 -310.0345 -1005.0850
Element 52
e_11      e_22      e_33     e_12      s_11       s_22       s_33      s_12      VM      e_1      e_2      e_3      s_1      s_2      s_3 
-0.0000  0.0000  0.0000 -0.0000 -241.4068 42.5006 -59.6719 -313.3663 597.1854  0.0000  0.0000 -0.0000 244.5662 -59.6719 -443.4724
Element 53
e_11      e_22      e_33     e_12      s_11       s_22       s_33      s_12      VM      e_1      e_2      e_3      s_1      s_2      s_3 
-0.0001  0.0000  0.0000 -0.0000 -865.5285 -44.4990 -273.0083 -308.1225 907.4753  0.0000  0.0000 -0.0001 58.2715 -273.0083 -968.2991
Element 54
e_11      e_22      e_33     e_12      s_11       s_22       s_33      s_12      VM      e_1      e_2      e_3      s_1      s_2      s_3 
-0.0001  0.0000  0.0000 -0.0000 -679.2559 -34.1379 -214.0181 -310.7838 788.8281  0.0000  0.0000 -0.0001 91.2214 -214.0181 -804.6153
Element 55
e_11      e_22      e_33     e_12      s_11       s_22       s_33      s_12      VM      e_1      e_2      e_3      s_1      s_2      s_3 
-0.0001  0.0000  0.0000 -0.0000 -646.9120 40.4113 -181.9502 -152.8008 662.6221  0.0000  0.0000 -0.0001 72.8499 -181.9502 -679.3507
Element 56
e_11      e_22      e_33     e_12      s_11       s_22       s_33      s_12      VM      e_1      e_2      e_3      s_1      s_2      s_3 
-0.0001  0.0000  0.0000 -0.0000 -1284.1951 -51.2403 -400.6306 -133.4565 1124.6780  0.0000  0.0000 -0.0001 -36.9602 -400.6306 -1298.4752
Element 57
e_11      e_22      e_33     e_12      s_11       s_22       s_33      s_12      VM      e_1      e_2      e_3      s_1      s_2      s_3 
-0.0001  0.0000  0.0000 -0.0000 -826.5955 46.3446 -234.0753 -147.6543 813.1884  0.0000  0.0000 -0.0001 70.6434 -234.0753 -850.8943
Element 58
e_11      e_22      e_33     e_12      s_11       s_22       s_33      s_12      VM      e_1      e_2      e_3      s_1      s_2      s_3 
 0.0002 -0.0001  0.0000 -0.0000 2002.7917 124.0957 638.0662 -187.2096 1712.6623  0.0002  0.0000 -0.0001 2021.2652 638.0662 105.6221
Element 59
e_11      e_22      e_33     e_12      s_11       s_22       s_33      s_12      VM      e_1      e_2      e_3      s_1      s_2      s_3 
 0.0002 -0.0001  0.0000 -0.0000 2251.3211 160.0738 723.4184 -215.7818 1911.0900  0.0002  0.0000 -0.0001 2273.3540 723.4184 138.0408
Element 60
e_11      e_22      e_33     e_12      s_11       s_22       s_33      s_12      VM      e_1      e_2      e_3      s_1      s_2      s_3 
 0.0001 -0.0001  0.0000 -0.0000 1201.9015 -77.6156 337.2858 -104.2461 1145.0045  0.0001  0.0000 -0.0001 1210.3391 337.2858 -86.0532
Element 61
e_11      e_22      e_33     e_12      s_11       s_22       s_33      s_12      VM      e_1      e_2      e_3      s_1      s_2      s_3 
 0.0000 -0.0000  0.0000 -0.0000 81.1572 -29.5483 15.4827 -334.7109 587.7010  0.0000  0.0000 -0.0000 365.0614 15.4827 -313.4526
Element 62
e_11      e_22      e_33     e_12      s_11       s_22       s_33      s_12      VM      e_1      e_2      e_3      s_1      s_2      s_3 
 0.0000 -0.0000  0.0000 -0.0000 137.2675 -31.1447 31.8369 -331.1937 592.2754  0.0000  0.0000 -0.0000 394.7922 31.8369 -288.6693
Element 63
e_11      e_22      e_33     e_12      s_11       s_22       s_33      s_12      VM      e_1      e_2      e_3      s_1      s_2      s_3 
 0.0000 -0.0000  0.0000 -0.0000 409.9254 34.3135 133.2717 -303.6482 624.7510  0.0001  0.0000 -0.0000 579.1535 133.2717 -134.9146
Element 64
e_11      e_22      e_33     e_12      s_11       s_22       s_33      s_12      VM      e_1      e_2      e_3      s_1      s_2      s_3 
-0.0000  0.0000  0.0000 -0.0000 -10.8609  9.0101 -0.5552 -359.9791 623.7397  0.0000  0.0000 -0.0000 359.1908 -0.5552 -361.0416
Element 65
e_11      e_22      e_33     e_12      s_11       s_22       s_33      s_12      VM      e_1      e_2      e_3      s_1      s_2      s_3 
-0.0000 -0.0000  0.0000 -0.0000 -35.1746 -16.8179 -15.5977 -306.2360 530.7564  0.0000  0.0000 -0.0000 280.3773 -15.5977 -332.3698
Element 66
e_11      e_22      e_33     e_12      s_11       s_22       s_33      s_12      VM      e_1      e_2      e_3      s_1      s_2      s_3 
-0.0000  0.0000  0.0000 -0.0000 -275.6295 34.7098 -72.2759 -158.1648 386.7853  0.0000  0.0000 -0.0000 101.1112 -72.2759 -342.0309
Element 67
e_11      e_22      e_33     e_12      s_11       s_22       s_33      s_12      VM      e_1      e_2      e_3      s_1      s_2      s_3 
-0.0001  0.0000  0.0000 -0.0000 -695.0096 -44.9869 -221.9989 -123.1482 619.9173  0.0000  0.0000 -0.0001 -22.4384 -221.9989 -717.5581
Element 68
e_11      e_22      e_33     e_12      s_11       s_22       s_33      s_12      VM      e_1      e_2      e_3      s_1      s_2      s_3 
-0.0000  0.0000  0.0000 -0.0000 -464.6342 35.4177 -128.7649 -156.4269 517.9924  0.0000  0.0000 -0.0000 80.3195 -128.7649 -509.5359
Element 69
e_11      e_22      e_33     e_12      s_11       s_22       s_33      s_12      VM      e_1      e_2      e_3      s_1      s_2      s_3 
 0.0001 -0.0000  0.0000 -0.0000 585.0267 42.3620 188.2166 -306.3794 719.8705  0.0001  0.0000 -0.0000 722.9493 188.2166 -95.5606
Element 70
e_11      e_22      e_33     e_12      s_11       s_22       s_33      s_12      VM      e_1      e_2      e_3      s_1      s_2      s_3 
 0.0000 -0.0000  0.0000 -0.0000 192.4203 -36.0126 46.9223 -325.7431 598.6989  0.0000  0.0000 -0.0000 423.3907 46.9223 -266.9830
Element 71
e_11      e_22      e_33     e_12      s_11       s_22       s_33      s_12      VM      e_1      e_2      e_3      s_1      s_2      s_3 
 0.0000 -0.0000  0.0000 -0.0000 242.9976 32.6136 82.6834 -302.5345 557.5086  0.0000  0.0000 -0.0000 458.1062 82.6834 -182.4949
Element 72
e_11      e_22      e_33     e_12      s_11       s_22       s_33      s_12      VM      e_1      e_2      e_3      s_1      s_2      s_3 
 0.0000 -0.0000  0.0000 -0.0000 15.3631 -38.2842 -6.8763 -326.2059 566.9307  0.0000  0.0000 -0.0000 315.8464 -6.8763 -338.7674
Element 73
e_11      e_22      e_33     e_12      s_11       s_22       s_33      s_12      VM      e_1      e_2      e_3      s_1      s_2      s_3 
 0.0000 -0.0000  0.0000 -0.0000 105.9510 21.5386 38.2469 -296.0147 518.5252  0.0000  0.0000 -0.0000 362.7533 38.2469 -235.2637
Element 74
e_11      e_22      e_33     e_12      s_11       s_22       s_33      s_12      VM      e_1      e_2      e_3      s_1      s_2      s_3 
-0.0000  0.0000  0.0000 -0.0000 -183.9572 31.6463 -45.6933 -312.0830 572.6944  0.0000  0.0000 -0.0000 254.0217 -45.6933 -406.3327
Element 75
e_11      e_22      e_33     e_12      s_11       s_22       s_33      s_12      VM      e_1      e_2      e_3      s_1      s_2      s_3 
-0.0000  0.0000  0.0000 -0.0000 -491.2554 -23.0488 -154.2913 -313.0648 684.8519  0.0000  0.0000 -0.0001 133.7621 -154.2913 -648.0663
Element 76
e_11      e_22      e_33     e_12      s_11       s_22       s_33      s_12      VM      e_1      e_2      e_3      s_1      s_2      s_3 
-0.0000  0.0000  0.0000 -0.0000 -211.8299 -32.3396 -73.2509 -366.2337 654.9264  0.0000  0.0000 -0.0001 254.9846 -73.2509 -499.1541
Element 77
e_11      e_22      e_33     e_12      s_11       s_22       s_33      s_12      VM      e_1      e_2      e_3      s_1      s_2      s_3 
 0.0000 -0.0000  0.0000 -0.0000 160.0194 23.3731 55.0178 -375.1715 661.5214  0.0001  0.0000 -0.0000 473.0383 55.0178 -289.6458
Element 78
e_11      e_22      e_33     e_12      s_11       s_22       s_33      s_12      VM      e_1      e_2      e_3      s_1      s_2      s_3 
-0.0000  0.0000  0.0000 -0.0000 -71.4618  6.7793 -19.4048 -304.4685 531.8475  0.0000  0.0000 -0.0000 274.6302 -19.4048 -339.3127
Element 79
e_11      e_22      e_33     e_12      s_11       s_22       s_33      s_12      VM      e_1      e_2      e_3      s_1      s_2      s_3 
-0.0000  0.0000  0.0000 -0.0000 -302.0131 -12.2762 -94.2868 -314.0100 602.2612  0.0000  0.0000 -0.0001 188.6720 -94.2868 -502.9613
Element 80
e_11      e_22      e_33     e_12      s_11       s_22       s_33      s_12      VM      e_1      e_2      e_3      s_1      s_2      s_3 
-0.0000  0.0000  0.0000 -0.0000 -126.7162 20.4690 -31.8742 -308.8480 550.3276  0.0000  0.0000 -0.0000 264.3712 -31.8742 -370.6184
Element 81
e_11      e_22      e_33     e_12      s_11       s_22       s_33      s_12      VM      e_1      e_2      e_3      s_1      s_2      s_3 
-0.0000  0.0000  0.0000 -0.0000 -147.6826 -25.6794 -52.0086 -363.0920 638.6494  0.0000  0.0000 -0.0001 281.4996 -52.0086 -454.8616
Element 82
e_11      e_22      e_33     e_12      s_11       s_22       s_33      s_12      VM      e_1      e_2      e_3      s_1      s_2      s_3 
-0.0000  0.0000  0.0000 -0.0000 -86.0899 -20.1077 -31.8593 -359.4083 625.4912  0.0000  0.0000 -0.0000 307.8205 -31.8593 -414.0181
Element 83
e_11      e_22      e_33     e_12      s_11       s_22       s_33      s_12      VM      e_1      e_2      e_3      s_1      s_2      s_3 
 0.0000 -0.0000  0.0000 -0.0000 98.6162 13.8096 33.7277 -377.0540 657.5780  0.0001  0.0000 -0.0000 435.6437 33.7277 -323.2180
Element 84
e_11      e_22      e_33     e_12      s_11       s_22       s_33      s_12      VM      e_1      e_2      e_3      s_1      s_2      s_3 
 0.0001 -0.0000  0.0000 -0.0000 894.2907 72.4179 290.0126 -119.6621 766.1229  0.0001  0.0000 -0.0000 911.3587 290.0126 55.3499
Element 85
e_11      e_22      e_33     e_12      s_11       s_22       s_33      s_12      VM      e_1      e_2      e_3      s_1      s_2      s_3 
 0.0001 -0.0000  0.0000 -0.0000 545.6249 -54.6385 147.2959 -168.4012 604.1165  0.0001  0.0000 -0.0000 589.6414 147.2959 -98.6550
Element 86
e_11      e_22      e_33     e_12      s_11       s_22       s_33      s_12      VM      e_1      e_2      e_3      s_1      s_2      s_3 
 0.0001 -0.0000  0.0000 -0.0000 1170.6266 75.1718 373.7395 -127.3567 1005.3634  0.0001  0.0000 -0.0000 1185.2381 373.7395 60.5603
Element 87
e_11      e_22      e_33     e_12      s_11       s_22       s_33      s_12      VM      e_1      e_2      e_3      s_1      s_2      s_3 
 0.0001 -0.0000  0.0000 -0.0000 717.2223 -55.1178 198.6314 -160.0994 736.0792  0.0001  0.0000 -0.0000 749.0942 198.6314 -86.9897
Element 88
e_11      e_22      e_33     e_12      s_11       s_22       s_33      s_12      VM      e_1      e_2      e_3      s_1      s_2      s_3 
 0.0001 -0.0000  0.0000 -0.0000 885.4840 -58.0946 248.2168 -149.3066 872.9352  0.0001  0.0000 -0.0000 908.5458 248.2168 -81.1564
Element 89
e_11      e_22      e_33     e_12      s_11       s_22       s_33      s_12      VM      e_1      e_2      e_3      s_1      s_2      s_3 
 0.0001 -0.0000  0.0000 -0.0000 1450.7581 82.7948 460.0659 -140.9085 1247.8500  0.0001  0.0000 -0.0001 1465.1217 460.0659 68.4312
Element 90
e_11      e_22      e_33     e_12      s_11       s_22       s_33      s_12      VM      e_1      e_2      e_3      s_1      s_2      s_3 
 0.0001 -0.0000  0.0000 -0.0000 938.7467 63.9857 300.8197 -317.0184 956.8835  0.0001  0.0000 -0.0000 1041.5535 300.8197 -38.8212
Element 91
e_11      e_22      e_33     e_12      s_11       s_22       s_33      s_12      VM      e_1      e_2      e_3      s_1      s_2      s_3 
 0.0000 -0.0000  0.0000 -0.0000 246.6236 -41.8668 61.4271 -318.4500 606.9005  0.0001  0.0000 -0.0000 451.9740 61.4271 -247.2171
Element 92
e_11      e_22      e_33     e_12      s_11       s_22       s_33      s_12      VM      e_1      e_2      e_3      s_1      s_2      s_3 
 0.0001 -0.0000  0.0000 -0.0000 762.5923 52.7211 244.5940 -310.6254 833.0617  0.0001  0.0000 -0.0000 879.3213 244.5940 -64.0078
Element 93
e_11      e_22      e_33     e_12      s_11       s_22       s_33      s_12      VM      e_1      e_2      e_3      s_1      s_2      s_3 
 0.0000 -0.0000  0.0000 -0.0000 206.0197 -62.0649 43.1864 -179.1369 388.5885  0.0000  0.0000 -0.0000 295.7124 43.1864 -151.7577
Element 94
e_11      e_22      e_33     e_12      s_11       s_22       s_33      s_12      VM      e_1      e_2      e_3      s_1      s_2      s_3 
 0.0001 -0.0000  0.0000 -0.0000 624.2062 69.8799 208.2258 -119.0990 540.6313  0.0001  0.0000 -0.0000 648.7117 208.2258 45.3744
Element 95
e_11      e_22      e_33     e_12      s_11       s_22       s_33      s_12      VM      e_1      e_2      e_3      s_1      s_2      s_3 
 0.0000 -0.0000  0.0000 -0.0000 364.8107 58.1944 126.9015 -126.6759 354.6941  0.0000  0.0000 -0.0000 410.3748 126.9015 12.6302
Element 96
e_11      e_22      e_33     e_12      s_11       s_22       s_33      s_12      VM      e_1      e_2      e_3      s_1      s_2      s_3 
 0.0000 -0.0000  0.0000 -0.0000 123.0532 10.9531 40.2019 -142.2030 266.0982  0.0000  0.0000 -0.0000 219.8538 40.2019 -85.8474
Element 97
e_11      e_22      e_33     e_12      s_11       s_22       s_33      s_12      VM      e_1      e_2      e_3      s_1      s_2      s_3 
 0.0000 -0.0000  0.0000 -0.0000 40.3503 -68.9317 -8.5744 -174.8568 317.3552  0.0000  0.0000 -0.0000 168.9047 -8.5744 -197.4861
