********************************************************
*                      VEMLab 1.0                      *
*      http://camlab.cl/research/software/vemlab       *
*------------------------------------------------------*
*               Linear Elastostatics                   *
********************************************************

Mesh filename: cantilever_beam_t3_hsize_2.txt
Method: FEM2DT3
Date: 16-2-2018
Time: 20:20 hrs

Nodal Displacements: 
 Node      Coords         u1       u2 
1 0.00000000 -2.00000000 0.00013975 -0.00011700
2 0.00000000 0.00558952 -0.00000054 -0.00000000
3 0.00000000 2.00000000 -0.00013975 -0.00011700
4 1.46699419 -0.00490170 -0.00000010 -0.00008395
5 2.00461548 2.00000000 0.00019433 -0.00024582
6 2.00829619 -2.00000000 -0.00019587 -0.00024608
7 3.13687313 0.00215564 0.00000057 -0.00041340
8 4.00000000 -2.00000000 -0.00044542 -0.00070291
9 4.00000000 2.00000000 0.00044518 -0.00070281
10 4.86312687 0.00215564 0.00000053 -0.00093574
11 5.99170381 -2.00000000 -0.00059561 -0.00136426
12 5.99538452 2.00000000 0.00059584 -0.00136555
13 6.53300581 -0.00490170 -0.00000156 -0.00155476
14 8.00000000 -2.00000000 -0.00064464 -0.00213077
15 8.00000000 0.00558952 0.00000178 -0.00213211
16 8.00000000 2.00000000 0.00064443 -0.00213059
Strains, Stresses, Principal Strains and Principal Stresses: 
(quantities are constant in the element)

Element 1
e_11      e_22      e_33     e_12      s_11       s_22       s_33      s_12      VM      e_1      e_2      e_3      s_1      s_2      s_3 
-0.0000  0.0001  0.0000 -0.0001 333.9047 784.1625 335.4202 -487.5416 956.6308  0.0001  0.0000 -0.0000 1096.0437 335.4202 22.0236
Element 2
e_11      e_22      e_33     e_12      s_11       s_22       s_33      s_12      VM      e_1      e_2      e_3      s_1      s_2      s_3 
-0.0000 -0.0001  0.0000 -0.0001 -341.0804 -790.8311 -339.5734 -490.1659 961.1157  0.0000  0.0000 -0.0001 -26.6678 -339.5734 -1105.2437
Element 3
e_11      e_22      e_33     e_12      s_11       s_22       s_33      s_12      VM      e_1      e_2      e_3      s_1      s_2      s_3 
-0.0002  0.0001  0.0000 -0.0000 -1881.4368 -104.9596 -595.9189 -44.1859 1590.7833  0.0001  0.0000 -0.0002 -103.8613 -595.9189 -1882.5352
Element 4
e_11      e_22      e_33     e_12      s_11       s_22       s_33      s_12      VM      e_1      e_2      e_3      s_1      s_2      s_3 
 0.0000 -0.0000  0.0000 -0.0000 280.3768 32.6485 93.9076 -296.8194 560.5815  0.0000  0.0000 -0.0000 478.1399 93.9076 -165.1146
Element 5
e_11      e_22      e_33     e_12      s_11       s_22       s_33      s_12      VM      e_1      e_2      e_3      s_1      s_2      s_3 
 0.0002 -0.0001  0.0000 -0.0000 1877.0965 106.6244 595.1163 -46.0432 1585.7789  0.0002  0.0000 -0.0001 1878.2931 595.1163 105.4278
Element 6
e_11      e_22      e_33     e_12      s_11       s_22       s_33      s_12      VM      e_1      e_2      e_3      s_1      s_2      s_3 
-0.0000  0.0000  0.0000 -0.0000 -282.1245 -32.2450 -94.3109 -297.2915 562.0762  0.0000  0.0000 -0.0001 165.2934 -94.3109 -479.6629
Element 7
e_11      e_22      e_33     e_12      s_11       s_22       s_33      s_12      VM      e_1      e_2      e_3      s_1      s_2      s_3 
-0.0000 -0.0000  0.0000 -0.0000 -4.2642 -9.1512 -4.0246 -274.0205 474.6438  0.0000  0.0000 -0.0000 267.3237 -4.0246 -280.7391
Element 8
e_11      e_22      e_33     e_12      s_11       s_22       s_33      s_12      VM      e_1      e_2      e_3      s_1      s_2      s_3 
-0.0000  0.0000  0.0000 -0.0000  3.9824 10.0759  4.2175 -274.3771 475.2728  0.0000  0.0000 -0.0000 281.4232  4.2175 -267.3649
Element 9
e_11      e_22      e_33     e_12      s_11       s_22       s_33      s_12      VM      e_1      e_2      e_3      s_1      s_2      s_3 
 0.0001 -0.0000  0.0000 -0.0000 861.1672 73.4580 280.3875 -295.9763 873.5623  0.0001  0.0000 -0.0000 959.9822 280.3875 -25.3571
Element 10
e_11      e_22      e_33     e_12      s_11       s_22       s_33      s_12      VM      e_1      e_2      e_3      s_1      s_2      s_3 
 0.0000 -0.0000  0.0000 -0.0000 -28.9287 -67.7314 -28.9980 -279.8098 486.1929  0.0000  0.0000 -0.0000 232.1516 -28.9980 -328.8116
Element 11
e_11      e_22      e_33     e_12      s_11       s_22       s_33      s_12      VM      e_1      e_2      e_3      s_1      s_2      s_3 
-0.0001  0.0000  0.0000 -0.0000 -860.1374 -73.4945 -280.0896 -295.4153 872.2286  0.0000  0.0000 -0.0001 25.0905 -280.0896 -958.7224
Element 12
e_11      e_22      e_33     e_12      s_11       s_22       s_33      s_12      VM      e_1      e_2      e_3      s_1      s_2      s_3 
 0.0000  0.0000  0.0000 -0.0000 29.4434 68.4936 29.3811 -280.4783 487.3721  0.0000  0.0000 -0.0000 330.1256 29.3811 -232.1886
Element 13
e_11      e_22      e_33     e_12      s_11       s_22       s_33      s_12      VM      e_1      e_2      e_3      s_1      s_2      s_3 
-0.0000 -0.0000  0.0000 -0.0000 -81.8724 -190.4135 -81.6858 -307.8215 544.1174  0.0000  0.0000 -0.0000 176.4261 -81.6858 -448.7120
Element 14
e_11      e_22      e_33     e_12      s_11       s_22       s_33      s_12      VM      e_1      e_2      e_3      s_1      s_2      s_3 
 0.0001 -0.0000  0.0000 -0.0000 1427.3937 107.1573 460.3653 -233.8098 1251.1846  0.0001  0.0000 -0.0001 1467.5776 460.3653 66.9734
Element 15
e_11      e_22      e_33     e_12      s_11       s_22       s_33      s_12      VM      e_1      e_2      e_3      s_1      s_2      s_3 
-0.0000 -0.0000  0.0000 -0.0001 -160.8496 -375.1355 -160.7955 -385.3370 700.9878  0.0000  0.0000 -0.0001 131.9627 -160.7955 -667.9478
Element 16
e_11      e_22      e_33     e_12      s_11       s_22       s_33      s_12      VM      e_1      e_2      e_3      s_1      s_2      s_3 
-0.0000  0.0000  0.0000 -0.0000 81.3446 190.4262 81.5312 -307.0888 542.9449  0.0000  0.0000 -0.0000 447.7800 81.5312 -176.0093
Element 17
e_11      e_22      e_33     e_12      s_11       s_22       s_33      s_12      VM      e_1      e_2      e_3      s_1      s_2      s_3 
-0.0001  0.0000  0.0000 -0.0000 -1422.8661 -107.3644 -459.0691 -233.1771 1246.8711  0.0001  0.0000 -0.0001 -67.2558 -459.0691 -1462.9747
Element 18
e_11      e_22      e_33     e_12      s_11       s_22       s_33      s_12      VM      e_1      e_2      e_3      s_1      s_2      s_3 
-0.0000  0.0000  0.0000 -0.0000 159.6720 372.8719 159.7632 -381.8500 694.8834  0.0001  0.0000 -0.0000 662.7224 159.7632 -130.1785
