********************************************************
*                      VEMLab 2.1                      *
*      http://camlab.cl/research/software/vemlab       *
*------------------------------------------------------*
*               Linear Elastostatics                   *
********************************************************

Mesh filename: veamy_M_test.txt
Method: VEM2D
Date: 29-9-2018
Time:  1:23 hrs

Nodal Displacements: 
 Node      Coords         u1       u2 
1 3.75000000 1.00000000 0.00000000 0.00000000
2 4.00000000 1.00000000 0.00000000 0.00000000
3 4.00000000 1.50000000 0.01933712 0.00284909
4 4.10000000 1.50000000 0.01934129 0.00410330
5 4.25000000 1.30000000 0.01314238 0.00195581
6 4.40000000 1.30000000 0.01311960 -0.00153084
7 4.55000000 1.50000000 0.01861024 -0.00339503
8 4.65000000 1.50000000 0.01697410 -0.00214082
9 4.65000000 1.00000000 0.00000000 0.00000000
10 4.90000000 1.00000000 0.00000000 0.00000000
11 4.90000000 2.00000000 0.03100820 -0.01068281
12 4.65000000 2.00000000 0.02866165 -0.00215688
13 4.32500000 1.60000000 0.01711393 0.00042497
14 4.00000000 2.00000000 0.03821972 0.00357344
15 3.75000000 2.00000000 0.03942717 0.01209937
Strains, Stresses, Principal Strains and Principal Stresses: 
(quantities are constant in the element)

Element 1
e_11      e_22      e_33     e_12      s_11       s_22       s_33      s_12      VM      e_1      e_2      e_3      s_1      s_2      s_3 
-0.0024  0.0007  0.0005  0.0086 -23609.2460 -0.0000  0.0000 66225.1656 117109.8380  0.0079  0.0005 -0.0096 55464.4017  0.0000 -79073.6476
