********************************************************
*                      VEMLab 1.0                      *
*      http://camlab.cl/research/software/vemlab       *
*------------------------------------------------------*
*               Linear Elastostatics                   *
********************************************************

Mesh filename: cantilever_beam_t3_hsize_06.txt
Method: FEM2DT3
Date: 3-1-2018
Time: 15: 3 hrs

Nodal Displacements: 
 Node      Coords         u1       u2 
1 -0.00000000 -0.85864804 0.00007935 -0.00002157
2 -0.00000000 0.29612755 -0.00002869 -0.00000256
3 -0.00000000 1.43860728 -0.00011970 -0.00006054
4 -0.00000000 -1.43455441 0.00011948 -0.00006019
5 -0.00000000 -0.28185933 0.00002733 -0.00000232
6 0.00000000 -2.00000000 0.00013975 -0.00011700
7 0.00000000 0.87127056 -0.00008038 -0.00002220
8 0.00000000 2.00000000 -0.00013975 -0.00011700
9 0.49889212 -0.85715801 0.00002415 -0.00003216
10 0.49920828 0.29087542 -0.00000938 -0.00001471
11 0.52060343 2.00000000 -0.00000860 -0.00012225
12 0.53506088 -2.00000000 0.00000650 -0.00012212
13 0.56113541 1.40302257 -0.00001840 -0.00007103
14 0.68969641 -0.28325875 0.00000269 -0.00002975
15 0.69119757 -1.42893448 -0.00000510 -0.00008108
16 0.71160069 0.84924199 -0.00000235 -0.00004877
17 1.04629911 2.00000000 0.00011462 -0.00016397
18 1.08900933 -0.85475219 -0.00003571 -0.00008910
19 1.09833851 0.27976913 0.00001072 -0.00007456
20 1.11856220 -2.00000000 -0.00013163 -0.00017239
21 1.16701886 1.40702483 0.00008214 -0.00013034
22 1.36051751 -1.42366894 -0.00011413 -0.00015904
23 1.36393872 -0.28747819 -0.00001961 -0.00011432
24 1.39184249 0.84212421 0.00006317 -0.00013361
25 1.60200101 2.00000000 0.00023673 -0.00024404
26 1.71624655 -0.85449205 -0.00009374 -0.00019269
27 1.72280450 -2.00000000 -0.00026330 -0.00026628
28 1.73046954 0.27568224 0.00002934 -0.00018119
29 1.78991062 1.40857331 0.00017644 -0.00023499
30 2.01503416 -1.42228243 -0.00021079 -0.00028389
31 2.02553372 -0.28956539 -0.00003963 -0.00024554
32 2.05254746 0.83985334 0.00012022 -0.00026477
33 2.18105008 2.00000000 0.00035379 -0.00036265
34 2.33416972 -2.00000000 -0.00038418 -0.00040004
35 2.35690695 -0.85495743 -0.00014755 -0.00034064
36 2.37341406 0.27345967 0.00004625 -0.00033193
37 2.41772162 1.41133263 0.00026291 -0.00038128
38 2.66382700 -1.42140661 -0.00029674 -0.00044965
39 2.68119327 -0.29162656 -0.00005775 -0.00041828
40 2.70277058 0.83945649 0.00017065 -0.00043604
41 2.77638853 2.00000000 0.00046274 -0.00051838
42 2.94354157 -2.00000000 -0.00049226 -0.00056817
43 3.00390693 -0.85636632 -0.00019644 -0.00052898
44 3.01960664 0.27130527 0.00006115 -0.00052225
45 3.04688013 1.41295585 0.00034048 -0.00056448
46 3.31377628 -1.42073822 -0.00037293 -0.00065302
47 3.33485863 -0.29512360 -0.00007438 -0.00062821
48 3.34785226 0.83817607 0.00021468 -0.00064266
49 3.38139144 2.00000000 0.00056138 -0.00070798
50 3.54183390 -2.00000000 -0.00058619 -0.00076343
51 3.65586924 -0.86040782 -0.00024070 -0.00075382
52 3.66666741 0.26732123 0.00007348 -0.00074730
53 3.67595487 1.41337719 0.00040866 -0.00078006
54 3.97146766 -1.42263550 -0.00044084 -0.00089236
55 3.98850784 -0.30203165 -0.00009035 -0.00087104
56 3.98994772 0.83661599 0.00025262 -0.00088017
57 3.99092882 2.00000000 0.00064844 -0.00092725
58 4.11623897 -2.00000000 -0.00066444 -0.00097588
59 4.30475820 1.41286318 0.00046731 -0.00102381
60 4.31231305 0.26455779 0.00008398 -0.00100184
61 4.31280028 -0.87069191 -0.00028180 -0.00101096
62 4.60086743 2.00000000 0.00072321 -0.00117131
63 4.63153046 0.83553976 0.00028490 -0.00114486
64 4.63976852 -0.30450808 -0.00010320 -0.00114123
65 4.64275472 -1.43615403 -0.00050490 -0.00116566
66 4.64751161 -2.00000000 -0.00072751 -0.00119570
67 4.93370567 1.41169123 0.00051644 -0.00129178
68 4.95774535 0.26463409 0.00009346 -0.00128180
69 4.96598746 -0.86963287 -0.00031301 -0.00129287
70 5.17339535 -2.00000000 -0.00078254 -0.00141986
71 5.20724898 2.00000000 0.00078529 -0.00143467
72 5.27573476 0.83566140 0.00031199 -0.00143377
73 5.29317723 -0.30059484 -0.00011174 -0.00143606
74 5.31472524 -1.42022714 -0.00054653 -0.00146454
75 5.56339822 1.40997934 0.00055608 -0.00158018
76 5.60451371 0.26835266 0.00010257 -0.00158340
77 5.62280600 -0.85711397 -0.00033354 -0.00159774
78 5.73802396 -2.00000000 -0.00083008 -0.00167906
79 5.80528814 2.00000000 0.00083455 -0.00171103
80 5.92686644 0.83758707 0.00033432 -0.00174478
81 5.95381145 -0.29074430 -0.00011558 -0.00175345
82 5.97762526 -1.41570936 -0.00058102 -0.00177881
83 6.19375246 1.40785416 0.00058621 -0.00188488
84 6.25206549 0.27570995 0.00011155 -0.00190190
85 6.27198801 -0.84983793 -0.00034928 -0.00191573
86 6.32146230 -2.00000000 -0.00086819 -0.00195978
87 6.38838357 2.00000000 0.00087104 -0.00199297
88 6.59140304 0.84260913 0.00035250 -0.00207710
89 6.62150271 -0.28256172 -0.00011759 -0.00208920
90 6.63859543 -1.41545627 -0.00060693 -0.00210707
91 6.82174423 1.40684073 0.00060746 -0.00220025
92 6.89120763 0.28390061 0.00011922 -0.00222812
93 6.90525186 -0.84633660 -0.00036020 -0.00223770
94 6.90703736 -2.00000000 -0.00089499 -0.00225105
95 6.94844840 2.00000000 0.00089530 -0.00227237
96 7.27826171 0.85152773 0.00036672 -0.00243122
97 7.30226921 -0.27504094 -0.00011761 -0.00244193
98 7.30949412 -1.42027556 -0.00062521 -0.00245040
99 7.43427992 1.40283284 0.00061791 -0.00251522
100 7.47668035 -2.00000000 -0.00090991 -0.00254047
101 7.47711567 2.00000000 0.00090844 -0.00254138
102 7.49827693 0.29670297 0.00012709 -0.00254480
103 7.49945966 -0.84755477 -0.00036721 -0.00254657
104 8.00000000 -2.00000000 -0.00091439 -0.00281069
105 8.00000000 2.00000000 0.00091295 -0.00281113
106 8.00000000 0.87415805 0.00038085 -0.00280829
107 8.00000000 -1.43066452 -0.00063602 -0.00280890
108 8.00000000 -0.27737968 -0.00011981 -0.00280862
109 8.00000000 1.44035760 0.00063955 -0.00280940
110 8.00000000 0.29906930 0.00012855 -0.00280881
111 8.00000000 -0.85642388 -0.00037261 -0.00280902
Strains, Stresses, Principal Strains and Principal Stresses: 
(quantities are constant in the element)

Element 1
e_11      e_22      e_33     e_12      s_11       s_22       s_33      s_12      VM      e_1      e_2      e_3      s_1      s_2      s_3 
 0.0000 -0.0000  0.0000 -0.0001 504.5928 211.6678 214.8782 -466.3596 858.6901  0.0001  0.0000 -0.0000 846.9478 214.8782 -130.6872
Element 2
e_11      e_22      e_33     e_12      s_11       s_22       s_33      s_12      VM      e_1      e_2      e_3      s_1      s_2      s_3 
 0.0003 -0.0001  0.0000 -0.0000 2811.0065 99.4504 873.1371 -176.1578 2438.5092  0.0003  0.0000 -0.0001 2822.4028 873.1371 88.0542
Element 3
e_11      e_22      e_33     e_12      s_11       s_22       s_33      s_12      VM      e_1      e_2      e_3      s_1      s_2      s_3 
 0.0002 -0.0001  0.0000  0.0000 1950.3906 -125.1127 547.5834 17.4836 1834.3849  0.0002  0.0000 -0.0001 1950.5378 547.5834 -125.2599
Element 4
e_11      e_22      e_33     e_12      s_11       s_22       s_33      s_12      VM      e_1      e_2      e_3      s_1      s_2      s_3 
 0.0000 -0.0000  0.0000 -0.0001 311.0009 -241.9490 20.7156 -440.6004 901.0505  0.0001  0.0000 -0.0001 554.6866 20.7156 -485.6347
Element 5
e_11      e_22      e_33     e_12      s_11       s_22       s_33      s_12      VM      e_1      e_2      e_3      s_1      s_2      s_3 
 0.0002 -0.0001  0.0000 -0.0000 1981.3748 106.6999 626.4224 -354.9771 1785.5624  0.0002  0.0000 -0.0001 2046.3398 626.4224 41.7349
Element 6
e_11      e_22      e_33     e_12      s_11       s_22       s_33      s_12      VM      e_1      e_2      e_3      s_1      s_2      s_3 
-0.0000  0.0000  0.0000 -0.0000 -254.8230 15.4312 -71.8175 -114.5550 310.5461  0.0000  0.0000 -0.0000 57.4543 -71.8175 -296.8461
Element 7
e_11      e_22      e_33     e_12      s_11       s_22       s_33      s_12      VM      e_1      e_2      e_3      s_1      s_2      s_3 
-0.0000  0.0000  0.0000 -0.0000 -513.0351 -23.3285 -160.9091 -98.5881 469.6016  0.0000  0.0000 -0.0000 -4.2259 -160.9091 -532.1377
Element 8
e_11      e_22      e_33     e_12      s_11       s_22       s_33      s_12      VM      e_1      e_2      e_3      s_1      s_2      s_3 
-0.0000  0.0000  0.0000 -0.0000 -429.3425  7.9471 -126.4186 -108.9721 431.4445  0.0000  0.0000 -0.0000 33.5981 -126.4186 -454.9935
Element 9
e_11      e_22      e_33     e_12      s_11       s_22       s_33      s_12      VM      e_1      e_2      e_3      s_1      s_2      s_3 
-0.0001  0.0000  0.0000 -0.0000 -787.4795  9.1491 -233.4991 -80.3877 720.8199  0.0000  0.0000 -0.0001 17.1801 -233.4991 -795.5105
Element 10
e_11      e_22      e_33     e_12      s_11       s_22       s_33      s_12      VM      e_1      e_2      e_3      s_1      s_2      s_3 
 0.0001 -0.0001  0.0000 -0.0000 1589.5239 46.4682 490.7976 -106.4264 1388.0937  0.0001  0.0000 -0.0001 1596.8296 490.7976 39.1624
Element 11
e_11      e_22      e_33     e_12      s_11       s_22       s_33      s_12      VM      e_1      e_2      e_3      s_1      s_2      s_3 
 0.0001 -0.0000  0.0000 -0.0000 1012.7642 -35.8613 293.0709 -112.1305 949.0021  0.0001  0.0000 -0.0000 1024.6204 293.0709 -47.7175
Element 12
e_11      e_22      e_33     e_12      s_11       s_22       s_33      s_12      VM      e_1      e_2      e_3      s_1      s_2      s_3 
 0.0001 -0.0000  0.0000 -0.0000 1042.7978 34.9936 323.3374 -254.6023 1001.3413  0.0001  0.0000 -0.0000 1103.4661 323.3374 -25.6746
Element 13
e_11      e_22      e_33     e_12      s_11       s_22       s_33      s_12      VM      e_1      e_2      e_3      s_1      s_2      s_3 
 0.0001 -0.0000  0.0000 -0.0000 1364.8914 41.8414 422.0198 -100.4230 1192.5838  0.0001  0.0000 -0.0001 1372.4703 422.0198 34.2624
Element 14
e_11      e_22      e_33     e_12      s_11       s_22       s_33      s_12      VM      e_1      e_2      e_3      s_1      s_2      s_3 
 0.0001 -0.0000  0.0000 -0.0000 852.0378 -33.8417 245.4588 -115.6346 809.6164  0.0001  0.0000 -0.0000 866.8829 245.4588 -48.6868
Element 15
e_11      e_22      e_33     e_12      s_11       s_22       s_33      s_12      VM      e_1      e_2      e_3      s_1      s_2      s_3 
 0.0001 -0.0000  0.0000 -0.0000 1197.2328  4.7523 360.5955 -259.8030 1151.8641  0.0001  0.0000 -0.0001 1251.3771 360.5955 -49.3920
Element 16
e_11      e_22      e_33     e_12      s_11       s_22       s_33      s_12      VM      e_1      e_2      e_3      s_1      s_2      s_3 
 0.0001 -0.0001  0.0000 -0.0000 1183.5989 -50.5620 339.9111 -146.4599 1121.6360  0.0001  0.0000 -0.0001 1200.7415 339.9111 -67.7045
Element 17
e_11      e_22      e_33     e_12      s_11       s_22       s_33      s_12      VM      e_1      e_2      e_3      s_1      s_2      s_3 
 0.0000 -0.0000  0.0000 -0.0001 319.8736 -113.9493 61.7773 -386.5276 768.8034  0.0001  0.0000 -0.0001 546.1937 61.7773 -340.2694
Element 18
e_11      e_22      e_33     e_12      s_11       s_22       s_33      s_12      VM      e_1      e_2      e_3      s_1      s_2      s_3 
 0.0001 -0.0000  0.0000 -0.0000 1073.7265 24.0726 329.3397 -316.7784 1084.2426  0.0001  0.0000 -0.0001 1161.9182 329.3397 -64.1191
Element 19
e_11      e_22      e_33     e_12      s_11       s_22       s_33      s_12      VM      e_1      e_2      e_3      s_1      s_2      s_3 
 0.0002 -0.0001  0.0000 -0.0000 1847.6057 59.2224 572.0484 -312.9465 1684.6313  0.0002  0.0000 -0.0001 1900.7863 572.0484  6.0417
Element 20
e_11      e_22      e_33     e_12      s_11       s_22       s_33      s_12      VM      e_1      e_2      e_3      s_1      s_2      s_3 
 0.0001 -0.0000  0.0000 -0.0000 1052.7777 -32.7093 306.0205 -203.6833 1024.5945  0.0001  0.0000 -0.0000 1089.7388 306.0205 -69.6704
Element 21
e_11      e_22      e_33     e_12      s_11       s_22       s_33      s_12      VM      e_1      e_2      e_3      s_1      s_2      s_3 
-0.0000  0.0000  0.0000 -0.0000 -54.4447 -7.2474 -18.5076 -376.4381 653.4064  0.0000  0.0000 -0.0001 346.3311 -18.5076 -408.0231
Element 22
e_11      e_22      e_33     e_12      s_11       s_22       s_33      s_12      VM      e_1      e_2      e_3      s_1      s_2      s_3 
-0.0001  0.0000  0.0000 -0.0000 -725.9641 -18.9715 -223.4807 -108.0911 657.3638  0.0000  0.0000 -0.0001 -2.8148 -223.4807 -742.1208
Element 23
e_11      e_22      e_33     e_12      s_11       s_22       s_33      s_12      VM      e_1      e_2      e_3      s_1      s_2      s_3 
-0.0001  0.0000  0.0000 -0.0000 -932.2882 -16.6173 -284.6716 -121.0863 841.9278  0.0000  0.0000 -0.0001 -0.8757 -284.6716 -948.0298
Element 24
e_11      e_22      e_33     e_12      s_11       s_22       s_33      s_12      VM      e_1      e_2      e_3      s_1      s_2      s_3 
-0.0001  0.0000  0.0000 -0.0000 -604.3580  2.0880 -180.6810 -97.7416 564.8027  0.0000  0.0000 -0.0001 17.4519 -180.6810 -619.7219
Element 25
e_11      e_22      e_33     e_12      s_11       s_22       s_33      s_12      VM      e_1      e_2      e_3      s_1      s_2      s_3 
-0.0000  0.0000  0.0000 -0.0000 -301.4786 -32.0213 -100.0500 -94.3172 292.5602  0.0000  0.0000 -0.0000 -2.2886 -100.0500 -331.2113
Element 26
e_11      e_22      e_33     e_12      s_11       s_22       s_33      s_12      VM      e_1      e_2      e_3      s_1      s_2      s_3 
-0.0000  0.0000  0.0000 -0.0000 -97.0252 -6.9664 -31.1975 -105.5567 199.8553  0.0000  0.0000 -0.0000 62.7642 -31.1975 -166.7558
Element 27
e_11      e_22      e_33     e_12      s_11       s_22       s_33      s_12      VM      e_1      e_2      e_3      s_1      s_2      s_3 
-0.0000  0.0000  0.0000 -0.0000 -79.1559 28.2711 -15.2654 -116.9486 223.1365  0.0000  0.0000 -0.0000 103.2515 -15.2654 -154.1362
Element 28
e_11      e_22      e_33     e_12      s_11       s_22       s_33      s_12      VM      e_1      e_2      e_3      s_1      s_2      s_3 
-0.0000  0.0000  0.0000 -0.0000 -435.4118 -6.5907 -132.6008 -256.2771 585.4606  0.0000  0.0000 -0.0001 113.1391 -132.6008 -555.1417
Element 29
e_11      e_22      e_33     e_12      s_11       s_22       s_33      s_12      VM      e_1      e_2      e_3      s_1      s_2      s_3 
-0.0001  0.0001  0.0000 -0.0000 -1099.6252 265.8328 -250.1377 -350.4720 1339.6481  0.0001  0.0000 -0.0001 350.5343 -250.1377 -1184.3267
Element 30
e_11      e_22      e_33     e_12      s_11       s_22       s_33      s_12      VM      e_1      e_2      e_3      s_1      s_2      s_3 
-0.0002  0.0001  0.0000 -0.0000 -1991.3686 -27.1211 -605.5469 -154.9071 1768.8024  0.0001  0.0000 -0.0002 -14.9796 -605.5469 -2003.5101
Element 31
e_11      e_22      e_33     e_12      s_11       s_22       s_33      s_12      VM      e_1      e_2      e_3      s_1      s_2      s_3 
-0.0001  0.0000  0.0000 -0.0001 -1293.3183 -187.6876 -444.3018 -428.9291 1247.5938  0.0001  0.0000 -0.0001 -40.7995 -444.3018 -1440.2065
Element 32
e_11      e_22      e_33     e_12      s_11       s_22       s_33      s_12      VM      e_1      e_2      e_3      s_1      s_2      s_3 
-0.0001  0.0000  0.0000 -0.0000 -938.6991 68.0038 -261.2086 -158.0080 930.2215  0.0000  0.0000 -0.0001 92.2215 -261.2086 -962.9168
Element 33
e_11      e_22      e_33     e_12      s_11       s_22       s_33      s_12      VM      e_1      e_2      e_3      s_1      s_2      s_3 
-0.0001  0.0000  0.0000 -0.0000 -981.3751 -20.0598 -300.4305 -244.2591 955.0904  0.0000  0.0000 -0.0001 38.4433 -300.4305 -1039.8781
Element 34
e_11      e_22      e_33     e_12      s_11       s_22       s_33      s_12      VM      e_1      e_2      e_3      s_1      s_2      s_3 
-0.0001  0.0000  0.0000 -0.0000 -1310.7604 -14.6389 -397.6198 -76.7741 1160.9902  0.0001  0.0000 -0.0001 -10.1071 -397.6198 -1315.2921
Element 35
e_11      e_22      e_33     e_12      s_11       s_22       s_33      s_12      VM      e_1      e_2      e_3      s_1      s_2      s_3 
-0.0001  0.0000  0.0000 -0.0000 -1122.0361 65.0850 -317.0853 -124.3565 1071.4579  0.0001  0.0000 -0.0001 77.9720 -317.0853 -1134.9232
Element 36
e_11      e_22      e_33     e_12      s_11       s_22       s_33      s_12      VM      e_1      e_2      e_3      s_1      s_2      s_3 
 0.0002 -0.0001  0.0000 -0.0000 2039.2649 66.0551 631.5960 -129.2895 1774.1505  0.0002  0.0000 -0.0001 2047.7002 631.5960 57.6198
Element 37
e_11      e_22      e_33     e_12      s_11       s_22       s_33      s_12      VM      e_1      e_2      e_3      s_1      s_2      s_3 
 0.0001 -0.0000  0.0000 -0.0000 1142.0896 39.6108 354.5101 -95.8950 997.5163  0.0001  0.0000 -0.0000 1150.3685 354.5101 31.3319
Element 38
e_11      e_22      e_33     e_12      s_11       s_22       s_33      s_12      VM      e_1      e_2      e_3      s_1      s_2      s_3 
 0.0000 -0.0000  0.0000 -0.0000 528.0892 -32.7854 148.5912 -122.0081 538.8935  0.0001  0.0000 -0.0000 553.4804 148.5912 -58.1765
Element 39
e_11      e_22      e_33     e_12      s_11       s_22       s_33      s_12      VM      e_1      e_2      e_3      s_1      s_2      s_3 
 0.0001 -0.0000  0.0000 -0.0000 690.4876 -32.5422 197.3836 -118.8107 672.1180  0.0001  0.0000 -0.0000 709.5104 197.3836 -51.5651
Element 40
e_11      e_22      e_33     e_12      s_11       s_22       s_33      s_12      VM      e_1      e_2      e_3      s_1      s_2      s_3 
 0.0001 -0.0000  0.0000 -0.0000 922.1773 39.9332 288.6332 -91.9755 803.8475  0.0001  0.0000 -0.0000 931.6639 288.6332 30.4466
Element 41
e_11      e_22      e_33     e_12      s_11       s_22       s_33      s_12      VM      e_1      e_2      e_3      s_1      s_2      s_3 
-0.0000  0.0000  0.0000 -0.0000 -48.9115  7.8356 -12.3228 -346.9925 603.0705  0.0000  0.0000 -0.0000 327.6126 -12.3228 -368.6886
Element 42
e_11      e_22      e_33     e_12      s_11       s_22       s_33      s_12      VM      e_1      e_2      e_3      s_1      s_2      s_3 
-0.0000  0.0000  0.0000 -0.0000 -215.0240  3.5631 -63.4383 -252.7891 478.8850  0.0000  0.0000 -0.0000 169.6736 -63.4383 -381.1345
Element 43
e_11      e_22      e_33     e_12      s_11       s_22       s_33      s_12      VM      e_1      e_2      e_3      s_1      s_2      s_3 
-0.0000  0.0000  0.0000 -0.0000 -220.3572 -12.0382 -69.7186 -338.4174 615.0503  0.0000  0.0000 -0.0001 237.8864 -69.7186 -470.2817
Element 44
e_11      e_22      e_33     e_12      s_11       s_22       s_33      s_12      VM      e_1      e_2      e_3      s_1      s_2      s_3 
-0.0000  0.0000  0.0000 -0.0000 -264.9677 -1.4089 -79.9130 -257.2233 503.4155  0.0000  0.0000 -0.0000 155.8266 -79.9130 -422.2032
Element 45
e_11      e_22      e_33     e_12      s_11       s_22       s_33      s_12      VM      e_1      e_2      e_3      s_1      s_2      s_3 
 0.0000 -0.0000  0.0000 -0.0000 39.0157 -6.8347  9.6543 -339.1626 588.8224  0.0000  0.0000 -0.0000 356.0270  9.6543 -323.8460
Element 46
e_11      e_22      e_33     e_12      s_11       s_22       s_33      s_12      VM      e_1      e_2      e_3      s_1      s_2      s_3 
 0.0000 -0.0000  0.0000 -0.0000 46.9848  8.0808 16.5197 -365.4140 633.9075  0.0000  0.0000 -0.0000 393.4642 16.5197 -338.3986
Element 47
e_11      e_22      e_33     e_12      s_11       s_22       s_33      s_12      VM      e_1      e_2      e_3      s_1      s_2      s_3 
 0.0000  0.0000  0.0000 -0.0000 16.5629 17.0494 10.0837 -336.5236 582.9148  0.0000  0.0000 -0.0000 353.3298 10.0837 -319.7175
Element 48
e_11      e_22      e_33     e_12      s_11       s_22       s_33      s_12      VM      e_1      e_2      e_3      s_1      s_2      s_3 
 0.0000 -0.0000  0.0000 -0.0000 66.1798  1.4984 20.3034 -338.8083 589.6560  0.0000  0.0000 -0.0000 374.1874 20.3034 -306.5093
Element 49
e_11      e_22      e_33     e_12      s_11       s_22       s_33      s_12      VM      e_1      e_2      e_3      s_1      s_2      s_3 
 0.0000 -0.0000  0.0000 -0.0000  9.8575  0.4486  3.0918 -366.8657 635.4855  0.0000  0.0000 -0.0000 372.0489  3.0918 -361.7428
Element 50
e_11      e_22      e_33     e_12      s_11       s_22       s_33      s_12      VM      e_1      e_2      e_3      s_1      s_2      s_3 
-0.0000  0.0000  0.0000 -0.0000 -21.6367 -6.5833 -8.4660 -372.9881 646.1905  0.0000  0.0000 -0.0000 358.9540 -8.4660 -387.1740
Element 51
e_11      e_22      e_33     e_12      s_11       s_22       s_33      s_12      VM      e_1      e_2      e_3      s_1      s_2      s_3 
 0.0000 -0.0000  0.0000 -0.0000 167.9378  2.5302 51.1404 -345.4197 616.1383  0.0001  0.0000 -0.0000 440.4166 51.1404 -269.9486
Element 52
e_11      e_22      e_33     e_12      s_11       s_22       s_33      s_12      VM      e_1      e_2      e_3      s_1      s_2      s_3 
-0.0000  0.0000  0.0000 -0.0000 -194.1734 20.9694 -51.9612 -341.2236 620.6572  0.0000  0.0000 -0.0001 271.1760 -51.9612 -444.3801
Element 53
e_11      e_22      e_33     e_12      s_11       s_22       s_33      s_12      VM      e_1      e_2      e_3      s_1      s_2      s_3 
-0.0000  0.0000  0.0000 -0.0000 -85.3868  8.0842 -23.1908 -344.2348 601.9007  0.0000  0.0000 -0.0000 308.7416 -23.1908 -386.0442
Element 54
e_11      e_22      e_33     e_12      s_11       s_22       s_33      s_12      VM      e_1      e_2      e_3      s_1      s_2      s_3 
-0.0001  0.0000  0.0000 -0.0000 -605.4771 -7.6190 -183.9289 -253.8966 690.2910  0.0000  0.0000 -0.0001 85.6535 -183.9289 -698.7497
Element 55
e_11      e_22      e_33     e_12      s_11       s_22       s_33      s_12      VM      e_1      e_2      e_3      s_1      s_2      s_3 
-0.0000  0.0000  0.0000 -0.0000 -315.9207  6.5977 -92.7969 -251.4213 521.0362  0.0000  0.0000 -0.0000 144.0310 -92.7969 -453.3539
Element 56
e_11      e_22      e_33     e_12      s_11       s_22       s_33      s_12      VM      e_1      e_2      e_3      s_1      s_2      s_3 
-0.0000  0.0000  0.0000 -0.0000 -122.7710 12.1958 -33.1726 -341.8375 603.9121  0.0000  0.0000 -0.0000 293.1473 -33.1726 -403.7226
Element 57
e_11      e_22      e_33     e_12      s_11       s_22       s_33      s_12      VM      e_1      e_2      e_3      s_1      s_2      s_3 
-0.0000  0.0000  0.0000 -0.0000 -321.1057 -12.1054 -99.9633 -339.7493 649.8775  0.0000  0.0000 -0.0001 206.6234 -99.9633 -539.8345
Element 58
e_11      e_22      e_33     e_12      s_11       s_22       s_33      s_12      VM      e_1      e_2      e_3      s_1      s_2      s_3 
-0.0000  0.0000  0.0000 -0.0000 -406.7444 -31.2874 -131.4095 -279.3808 589.5436  0.0000  0.0000 -0.0001 117.5782 -131.4095 -555.6100
Element 59
e_11      e_22      e_33     e_12      s_11       s_22       s_33      s_12      VM      e_1      e_2      e_3      s_1      s_2      s_3 
-0.0000  0.0000  0.0000 -0.0000 -381.2323 27.8562 -106.0129 -250.9061 565.1298  0.0000  0.0000 -0.0001 147.0282 -106.0129 -500.4044
Element 60
e_11      e_22      e_33     e_12      s_11       s_22       s_33      s_12      VM      e_1      e_2      e_3      s_1      s_2      s_3 
 0.0000 -0.0000  0.0000 -0.0001 408.9184 98.4691 152.2162 -423.0025 787.0039  0.0001  0.0000 -0.0000 704.2776 152.2162 -196.8901
Element 61
e_11      e_22      e_33     e_12      s_11       s_22       s_33      s_12      VM      e_1      e_2      e_3      s_1      s_2      s_3 
-0.0001  0.0001  0.0000 -0.0000 -1060.4659 128.3818 -279.6252 -306.5213 1173.3015  0.0001  0.0000 -0.0001 202.7591 -279.6252 -1134.8432
Element 62
e_11      e_22      e_33     e_12      s_11       s_22       s_33      s_12      VM      e_1      e_2      e_3      s_1      s_2      s_3 
-0.0001  0.0000  0.0000 -0.0001 -1155.7950 -96.2148 -375.6029 -385.8075 1162.4440  0.0001  0.0000 -0.0001 29.3767 -375.6029 -1281.3864
Element 63
e_11      e_22      e_33     e_12      s_11       s_22       s_33      s_12      VM      e_1      e_2      e_3      s_1      s_2      s_3 
-0.0001  0.0001  0.0000 -0.0000 -1534.3561 -86.9804 -486.4010 -64.4550 1299.5326  0.0001  0.0000 -0.0001 -84.1157 -486.4010 -1537.2208
Element 64
e_11      e_22      e_33     e_12      s_11       s_22       s_33      s_12      VM      e_1      e_2      e_3      s_1      s_2      s_3 
-0.0001  0.0001  0.0000 -0.0000 -1442.1001 39.8248 -420.6826 -110.7085 1327.5919  0.0001  0.0000 -0.0001 48.0497 -420.6826 -1450.3251
Element 65
e_11      e_22      e_33     e_12      s_11       s_22       s_33      s_12      VM      e_1      e_2      e_3      s_1      s_2      s_3 
-0.0002  0.0001  0.0000 -0.0000 -1975.4166 -61.3794 -611.0388 -91.2436 1714.2262  0.0001  0.0000 -0.0002 -57.0396 -611.0388 -1979.7564
Element 66
e_11      e_22      e_33     e_12      s_11       s_22       s_33      s_12      VM      e_1      e_2      e_3      s_1      s_2      s_3 
-0.0002  0.0001  0.0000 -0.0000 -2636.1577 -81.2353 -815.2179 -160.5083 2295.2949  0.0001  0.0000 -0.0002 -71.1912 -815.2179 -2646.2018
Element 67
e_11      e_22      e_33     e_12      s_11       s_22       s_33      s_12      VM      e_1      e_2      e_3      s_1      s_2      s_3 
-0.0002  0.0001  0.0000 -0.0000 -2772.7857 -84.3728 -857.1475 -174.6949 2416.3530  0.0001  0.0000 -0.0003 -73.0685 -857.1475 -2784.0900
Element 68
e_11      e_22      e_33     e_12      s_11       s_22       s_33      s_12      VM      e_1      e_2      e_3      s_1      s_2      s_3 
-0.0002  0.0001  0.0000 -0.0000 -1966.0963 39.8693 -577.8681 -7.0811 1779.4628  0.0001  0.0000 -0.0002 39.8943 -577.8681 -1966.1213
Element 69
e_11      e_22      e_33     e_12      s_11       s_22       s_33      s_12      VM      e_1      e_2      e_3      s_1      s_2      s_3 
-0.0002  0.0001  0.0000 -0.0000 -2198.9500 -61.2421 -678.0576 -107.1863 1914.7198  0.0001  0.0000 -0.0002 -55.8812 -678.0576 -2204.3110
Element 70
e_11      e_22      e_33     e_12      s_11       s_22       s_33      s_12      VM      e_1      e_2      e_3      s_1      s_2      s_3 
 0.0001 -0.0000  0.0000 -0.0000 644.5805 -29.7832 184.4392 -257.1144 744.6591  0.0001  0.0000 -0.0000 731.4262 184.4392 -116.6289
Element 71
e_11      e_22      e_33     e_12      s_11       s_22       s_33      s_12      VM      e_1      e_2      e_3      s_1      s_2      s_3 
 0.0001 -0.0000  0.0000 -0.0000 670.0965 31.1489 210.3736 -343.1635 824.1019  0.0001  0.0000 -0.0000 819.4774 210.3736 -118.2320
Element 72
e_11      e_22      e_33     e_12      s_11       s_22       s_33      s_12      VM      e_1      e_2      e_3      s_1      s_2      s_3 
 0.0001 -0.0001  0.0000 -0.0000 1330.0180 -40.5932 386.8274 -101.1354 1227.2413  0.0001  0.0000 -0.0001 1337.4405 386.8274 -48.0157
Element 73
e_11      e_22      e_33     e_12      s_11       s_22       s_33      s_12      VM      e_1      e_2      e_3      s_1      s_2      s_3 
 0.0002 -0.0001  0.0000 -0.0000 1814.9319 54.0592 560.6973 -115.4380 1582.7847  0.0002  0.0000 -0.0001 1822.4674 560.6973 46.5237
Element 74
e_11      e_22      e_33     e_12      s_11       s_22       s_33      s_12      VM      e_1      e_2      e_3      s_1      s_2      s_3 
 0.0001 -0.0000  0.0000 -0.0000 1172.3713 -38.1023 340.2807 -107.7037 1088.6679  0.0001  0.0000 -0.0001 1181.8797 340.2807 -47.6107
Element 75
e_11      e_22      e_33     e_12      s_11       s_22       s_33      s_12      VM      e_1      e_2      e_3      s_1      s_2      s_3 
 0.0001 -0.0000  0.0000 -0.0000 1205.9874 39.6632 373.6952 -258.2345 1132.4112  0.0001  0.0000 -0.0001 1260.6051 373.6952 -14.9545
Element 76
e_11      e_22      e_33     e_12      s_11       s_22       s_33      s_12      VM      e_1      e_2      e_3      s_1      s_2      s_3 
 0.0001 -0.0000  0.0000 -0.0000 706.3946 43.2751 224.9009 -88.7421 613.1079  0.0001  0.0000 -0.0000 718.0651 224.9009 31.6046
Element 77
e_11      e_22      e_33     e_12      s_11       s_22       s_33      s_12      VM      e_1      e_2      e_3      s_1      s_2      s_3 
 0.0000 -0.0000  0.0000 -0.0000 98.3221  8.1788 31.9503 -105.2340 199.4257  0.0000  0.0000 -0.0000 167.7303 31.9503 -61.2294
Element 78
e_11      e_22      e_33     e_12      s_11       s_22       s_33      s_12      VM      e_1      e_2      e_3      s_1      s_2      s_3 
 0.0002 -0.0001  0.0000 -0.0000 2461.5552 109.3238 771.2637 -171.3921 2121.8499  0.0002  0.0000 -0.0001 2473.9779 771.2637 96.9012
Element 79
e_11      e_22      e_33     e_12      s_11       s_22       s_33      s_12      VM      e_1      e_2      e_3      s_1      s_2      s_3 
 0.0002 -0.0001  0.0000 -0.0000 2629.1086 124.6439 826.1257 -180.9181 2259.5968  0.0002  0.0000 -0.0001 2642.1103 826.1257 111.6422
Element 80
e_11      e_22      e_33     e_12      s_11       s_22       s_33      s_12      VM      e_1      e_2      e_3      s_1      s_2      s_3 
 0.0002 -0.0001  0.0000 -0.0000 1784.1721 -76.5344 512.2913 -34.4145 1648.2918  0.0002  0.0000 -0.0001 1784.8084 512.2913 -77.1707
Element 81
e_11      e_22      e_33     e_12      s_11       s_22       s_33      s_12      VM      e_1      e_2      e_3      s_1      s_2      s_3 
 0.0001 -0.0001  0.0000 -0.0000 1484.2798 -44.4202 431.9579 -89.8362 1363.7566  0.0001  0.0000 -0.0001 1489.5410 431.9579 -49.6814
Element 82
e_11      e_22      e_33     e_12      s_11       s_22       s_33      s_12      VM      e_1      e_2      e_3      s_1      s_2      s_3 
 0.0002 -0.0001  0.0000 -0.0000 2257.7213 84.3037 702.6075 -148.7965 1956.6892  0.0002  0.0000 -0.0001 2267.8609 702.6075 74.1641
Element 83
e_11      e_22      e_33     e_12      s_11       s_22       s_33      s_12      VM      e_1      e_2      e_3      s_1      s_2      s_3 
 0.0001 -0.0001  0.0000 -0.0000 1526.2932 48.2853 472.3736 -271.7180 1399.6587  0.0001  0.0000 -0.0001 1574.6631 472.3736 -0.0845
Element 84
e_11      e_22      e_33     e_12      s_11       s_22       s_33      s_12      VM      e_1      e_2      e_3      s_1      s_2      s_3 
 0.0002 -0.0001  0.0000 -0.0000 1637.1858 -52.4164 475.4308 -68.9345 1501.9262  0.0002  0.0000 -0.0001 1639.9936 475.4308 -55.2242
Element 85
e_11      e_22      e_33     e_12      s_11       s_22       s_33      s_12      VM      e_1      e_2      e_3      s_1      s_2      s_3 
 0.0001 -0.0000  0.0000 -0.0000 941.6501 -29.1410 273.7527 -229.6324 947.8009  0.0001  0.0000 -0.0000 993.2274 273.7527 -80.7183
Element 86
e_11      e_22      e_33     e_12      s_11       s_22       s_33      s_12      VM      e_1      e_2      e_3      s_1      s_2      s_3 
 0.0002 -0.0001  0.0000 -0.0000 1682.8944 50.6563 520.0652 -285.0622 1536.9256  0.0002  0.0000 -0.0001 1731.2468 520.0652  2.3040
Element 87
e_11      e_22      e_33     e_12      s_11       s_22       s_33      s_12      VM      e_1      e_2      e_3      s_1      s_2      s_3 
-0.0000  0.0000  0.0000 -0.0000 -125.2291 -12.5082 -41.3212 -336.7773 592.0687  0.0000  0.0000 -0.0000 272.5921 -41.3212 -410.3295
Element 88
e_11      e_22      e_33     e_12      s_11       s_22       s_33      s_12      VM      e_1      e_2      e_3      s_1      s_2      s_3 
-0.0000  0.0000  0.0000 -0.0000 -36.9321 -8.1181 -13.5151 -337.4954 585.1609  0.0000  0.0000 -0.0000 315.2776 -13.5151 -360.3278
Element 89
e_11      e_22      e_33     e_12      s_11       s_22       s_33      s_12      VM      e_1      e_2      e_3      s_1      s_2      s_3 
-0.0000  0.0000  0.0000 -0.0000 -12.5752 13.9736  0.4195 -346.7161 600.9699  0.0000  0.0000 -0.0000 347.6693  0.4195 -346.2709
Element 90
e_11      e_22      e_33     e_12      s_11       s_22       s_33      s_12      VM      e_1      e_2      e_3      s_1      s_2      s_3 
-0.0000  0.0000  0.0000 -0.0000 -120.3160 -2.1935 -36.7528 -252.6776 450.1145  0.0000  0.0000 -0.0000 198.2337 -36.7528 -320.7431
Element 91
e_11      e_22      e_33     e_12      s_11       s_22       s_33      s_12      VM      e_1      e_2      e_3      s_1      s_2      s_3 
-0.0000 -0.0000  0.0000 -0.0000 -36.9179 -18.1421 -16.5180 -252.4174 437.6406  0.0000  0.0000 -0.0000 225.0619 -16.5180 -280.1219
Element 92
e_11      e_22      e_33     e_12      s_11       s_22       s_33      s_12      VM      e_1      e_2      e_3      s_1      s_2      s_3 
-0.0000  0.0000  0.0000 -0.0000 -94.2921  6.5651 -26.3181 -252.7363 446.7258  0.0000  0.0000 -0.0000 213.8548 -26.3181 -301.5817
Element 93
e_11      e_22      e_33     e_12      s_11       s_22       s_33      s_12      VM      e_1      e_2      e_3      s_1      s_2      s_3 
 0.0000 -0.0000  0.0000 -0.0000 155.7007 -19.3303 40.9111 -268.0261 489.1162  0.0000  0.0000 -0.0000 350.1372 40.9111 -213.7668
Element 94
e_11      e_22      e_33     e_12      s_11       s_22       s_33      s_12      VM      e_1      e_2      e_3      s_1      s_2      s_3 
 0.0000 -0.0000  0.0000 -0.0000 388.4682 20.9845 122.8358 -247.8533 540.6320  0.0001  0.0000 -0.0000 513.2589 122.8358 -103.8062
Element 95
e_11      e_22      e_33     e_12      s_11       s_22       s_33      s_12      VM      e_1      e_2      e_3      s_1      s_2      s_3 
 0.0000 -0.0000  0.0000 -0.0000 364.8046 -35.5494 98.7766 -125.2842 414.2912  0.0000  0.0000 -0.0000 400.7779 98.7766 -71.5227
Element 96
e_11      e_22      e_33     e_12      s_11       s_22       s_33      s_12      VM      e_1      e_2      e_3      s_1      s_2      s_3 
 0.0000 -0.0000  0.0000 -0.0000 496.2700 47.6311 163.1703 -87.9259 431.2583  0.0000  0.0000 -0.0000 512.8866 163.1703 31.0145
Element 97
e_11      e_22      e_33     e_12      s_11       s_22       s_33      s_12      VM      e_1      e_2      e_3      s_1      s_2      s_3 
-0.0000  0.0000  0.0000 -0.0000 -525.7827 13.3894 -153.7180 -251.1944 646.3958  0.0000  0.0000 -0.0001 112.2802 -153.7180 -624.6736
Element 98
e_11      e_22      e_33     e_12      s_11       s_22       s_33      s_12      VM      e_1      e_2      e_3      s_1      s_2      s_3 
-0.0000  0.0000  0.0000 -0.0000 -539.9974 -20.7328 -168.2191 -339.4878 748.7052  0.0000  0.0000 -0.0001 147.0234 -168.2191 -707.7536
Element 99
e_11      e_22      e_33     e_12      s_11       s_22       s_33      s_12      VM      e_1      e_2      e_3      s_1      s_2      s_3 
-0.0001  0.0000  0.0000 -0.0000 -784.0833 -10.5283 -238.3835 -254.8955 817.9009  0.0000  0.0000 -0.0001 65.9097 -238.3835 -860.5212
Element 100
e_11      e_22      e_33     e_12      s_11       s_22       s_33      s_12      VM      e_1      e_2      e_3      s_1      s_2      s_3 
-0.0000  0.0000  0.0000 -0.0000 -159.8998 17.6261 -42.6821 -341.5265 611.8556  0.0000  0.0000 -0.0000 281.7359 -42.6821 -424.0096
Element 101
e_11      e_22      e_33     e_12      s_11       s_22       s_33      s_12      VM      e_1      e_2      e_3      s_1      s_2      s_3 
-0.0000  0.0000  0.0000 -0.0000 -421.7774 12.4172 -122.8081 -249.8809 579.1529  0.0000  0.0000 -0.0001 126.3361 -122.8081 -535.6962
Element 102
e_11      e_22      e_33     e_12      s_11       s_22       s_33      s_12      VM      e_1      e_2      e_3      s_1      s_2      s_3 
-0.0000  0.0000  0.0000 -0.0000 -428.1455 -14.0373 -132.6549 -340.9789 696.5882  0.0000  0.0000 -0.0001 177.8296 -132.6549 -620.0125
Element 103
e_11      e_22      e_33     e_12      s_11       s_22       s_33      s_12      VM      e_1      e_2      e_3      s_1      s_2      s_3 
 0.0001 -0.0000  0.0000 -0.0000 547.4468 -27.5288 155.9754 -260.9624 680.4884  0.0001  0.0000 -0.0000 648.2252 155.9754 -128.3072
Element 104
e_11      e_22      e_33     e_12      s_11       s_22       s_33      s_12      VM      e_1      e_2      e_3      s_1      s_2      s_3 
 0.0001 -0.0000  0.0000 -0.0000 878.8620 30.4452 272.7922 -252.2098 873.9344  0.0001  0.0000 -0.0000 948.1742 272.7922 -38.8670
Element 105
e_11      e_22      e_33     e_12      s_11       s_22       s_33      s_12      VM      e_1      e_2      e_3      s_1      s_2      s_3 
 0.0000 -0.0000  0.0000 -0.0000 204.0190 26.5092 69.1585 -371.5367 663.2320  0.0001  0.0000 -0.0000 497.2549 69.1585 -266.7267
Element 106
e_11      e_22      e_33     e_12      s_11       s_22       s_33      s_12      VM      e_1      e_2      e_3      s_1      s_2      s_3 
-0.0000  0.0000  0.0000 -0.0000 -213.3516 -23.0130 -70.9094 -371.5153 665.9409  0.0000  0.0000 -0.0001 265.3289 -70.9094 -501.6935
Element 107
e_11      e_22      e_33     e_12      s_11       s_22       s_33      s_12      VM      e_1      e_2      e_3      s_1      s_2      s_3 
 0.0000 -0.0000  0.0000 -0.0000 181.6824 -26.3815 46.5903 -344.5463 624.1548  0.0001  0.0000 -0.0000 437.5599 46.5903 -282.2590
Element 108
e_11      e_22      e_33     e_12      s_11       s_22       s_33      s_12      VM      e_1      e_2      e_3      s_1      s_2      s_3 
 0.0001 -0.0000  0.0000 -0.0000 570.2826 26.6711 179.0861 -342.8752 767.1894  0.0001  0.0000 -0.0000 736.0175 179.0861 -139.0638
Element 109
e_11      e_22      e_33     e_12      s_11       s_22       s_33      s_12      VM      e_1      e_2      e_3      s_1      s_2      s_3 
 0.0000 -0.0000  0.0000 -0.0000 77.0701  8.3821 25.6357 -367.2941 639.1756  0.0001  0.0000 -0.0000 411.6224 25.6357 -326.1702
Element 110
e_11      e_22      e_33     e_12      s_11       s_22       s_33      s_12      VM      e_1      e_2      e_3      s_1      s_2      s_3 
-0.0000  0.0000  0.0000 -0.0000 -91.8607 -9.6105 -30.4413 -375.8592 655.2069  0.0000  0.0000 -0.0001 327.3668 -30.4413 -428.8380
Element 111
e_11      e_22      e_33     e_12      s_11       s_22       s_33      s_12      VM      e_1      e_2      e_3      s_1      s_2      s_3 
 0.0000 -0.0000  0.0000 -0.0000 68.3895 -9.8331 17.5669 -343.3574 598.6728  0.0000  0.0000 -0.0000 374.8560 17.5669 -316.2995
Element 112
e_11      e_22      e_33     e_12      s_11       s_22       s_33      s_12      VM      e_1      e_2      e_3      s_1      s_2      s_3 
-0.0002  0.0001  0.0000 -0.0000 -1786.2690 28.9475 -527.1964 -69.0861 1615.2721  0.0001  0.0000 -0.0002 31.5731 -527.1964 -1788.8946
Element 113
e_11      e_22      e_33     e_12      s_11       s_22       s_33      s_12      VM      e_1      e_2      e_3      s_1      s_2      s_3 
-0.0002  0.0001  0.0000 -0.0000 -1812.1044 -39.2440 -555.4045 -219.7279 1624.5665  0.0001  0.0000 -0.0002 -12.4169 -555.4045 -1838.9315
Element 114
e_11      e_22      e_33     e_12      s_11       s_22       s_33      s_12      VM      e_1      e_2      e_3      s_1      s_2      s_3 
-0.0001  0.0001  0.0000 -0.0000 -1611.4583 35.5233 -472.7805 -96.5950 1470.2877  0.0001  0.0000 -0.0001 41.1693 -472.7805 -1617.1042
Element 115
e_11      e_22      e_33     e_12      s_11       s_22       s_33      s_12      VM      e_1      e_2      e_3      s_1      s_2      s_3 
-0.0002  0.0001  0.0000 -0.0000 -2423.5775 -67.2453 -747.2468 -129.0123 2112.4220  0.0001  0.0000 -0.0002 -60.2027 -747.2468 -2430.6200
Element 116
e_11      e_22      e_33     e_12      s_11       s_22       s_33      s_12      VM      e_1      e_2      e_3      s_1      s_2      s_3 
-0.0001  0.0001  0.0000 -0.0000 -1644.4443 -43.4804 -506.3774 -240.7443 1486.6577  0.0001  0.0000 -0.0002 -8.0621 -506.3774 -1679.8626
Element 117
e_11      e_22      e_33     e_12      s_11       s_22       s_33      s_12      VM      e_1      e_2      e_3      s_1      s_2      s_3 
-0.0001  0.0000  0.0000 -0.0000 -991.3532 59.8364 -279.4550 -275.0333 1044.2168  0.0001  0.0000 -0.0001 127.4475 -279.4550 -1058.9643
Element 118
e_11      e_22      e_33     e_12      s_11       s_22       s_33      s_12      VM      e_1      e_2      e_3      s_1      s_2      s_3 
-0.0000  0.0000  0.0000 -0.0000 -376.2322 -36.0970 -123.6988 -335.5779 656.8160  0.0000  0.0000 -0.0001 170.0475 -123.6988 -582.3767
Element 119
e_11      e_22      e_33     e_12      s_11       s_22       s_33      s_12      VM      e_1      e_2      e_3      s_1      s_2      s_3 
-0.0000  0.0000  0.0000 -0.0000 -347.5048 29.9419 -95.2689 -311.6899 634.2990  0.0000  0.0000 -0.0001 205.5908 -95.2689 -523.1537
Element 120
e_11      e_22      e_33     e_12      s_11       s_22       s_33      s_12      VM      e_1      e_2      e_3      s_1      s_2      s_3 
-0.0001  0.0000  0.0000 -0.0000 -1040.3711 -54.7560 -328.5381 -353.5949 1073.1441  0.0001  0.0000 -0.0001 58.9747 -328.5381 -1154.1018
Element 121
e_11      e_22      e_33     e_12      s_11       s_22       s_33      s_12      VM      e_1      e_2      e_3      s_1      s_2      s_3 
-0.0002  0.0001  0.0000 -0.0000 -1754.9831 -69.6274 -547.3832 -76.9601 1510.3822  0.0001  0.0000 -0.0002 -66.1204 -547.3832 -1758.4901
Element 122
e_11      e_22      e_33     e_12      s_11       s_22       s_33      s_12      VM      e_1      e_2      e_3      s_1      s_2      s_3 
-0.0001  0.0001  0.0000 -0.0000 -1273.0864 42.8010 -369.0856 -122.4539 1184.9889  0.0001  0.0000 -0.0001 54.0993 -369.0856 -1284.3847
Element 123
e_11      e_22      e_33     e_12      s_11       s_22       s_33      s_12      VM      e_1      e_2      e_3      s_1      s_2      s_3 
-0.0001  0.0000  0.0000 -0.0000 -1103.9593 47.5401 -316.9258 -138.0478 1047.0318  0.0000  0.0000 -0.0001 63.8587 -316.9258 -1120.2779
Element 124
e_11      e_22      e_33     e_12      s_11       s_22       s_33      s_12      VM      e_1      e_2      e_3      s_1      s_2      s_3 
 0.0001 -0.0000  0.0000 -0.0000 840.5525 -30.3598 243.0578 -243.7867 879.4421  0.0001  0.0000 -0.0000 904.1494 243.0578 -93.9567
Element 125
e_11      e_22      e_33     e_12      s_11       s_22       s_33      s_12      VM      e_1      e_2      e_3      s_1      s_2      s_3 
 0.0001 -0.0000  0.0000 -0.0000 1367.5232 44.1237 423.4941 -263.7057 1265.6507  0.0001  0.0000 -0.0001 1418.1347 423.4941 -6.4878
Element 126
e_11      e_22      e_33     e_12      s_11       s_22       s_33      s_12      VM      e_1      e_2      e_3      s_1      s_2      s_3 
 0.0001 -0.0000  0.0000 -0.0000 742.5942 -30.5723 213.6065 -251.8460 811.7253  0.0001  0.0000 -0.0000 817.3925 213.6065 -105.3707
Element 127
e_11      e_22      e_33     e_12      s_11       s_22       s_33      s_12      VM      e_1      e_2      e_3      s_1      s_2      s_3 
 0.0000 -0.0000  0.0000 -0.0000 229.9967 23.5430 76.0619 -247.2387 466.8186  0.0000  0.0000 -0.0000 394.6929 76.0619 -141.1532
Element 128
e_11      e_22      e_33     e_12      s_11       s_22       s_33      s_12      VM      e_1      e_2      e_3      s_1      s_2      s_3 
 0.0000 -0.0000  0.0000 -0.0000 43.2485 -53.3443 -3.0288 -128.8264 238.3075  0.0000  0.0000 -0.0000 132.5340 -3.0288 -142.6299
Element 129
e_11      e_22      e_33     e_12      s_11       s_22       s_33      s_12      VM      e_1      e_2      e_3      s_1      s_2      s_3 
 0.0000 -0.0000  0.0000 -0.0000 292.3741 44.9681 101.2027 -92.7656 276.1804  0.0000  0.0000 -0.0000 323.2929 101.2027 14.0494
Element 130
e_11      e_22      e_33     e_12      s_11       s_22       s_33      s_12      VM      e_1      e_2      e_3      s_1      s_2      s_3 
 0.0000 -0.0000  0.0000 -0.0000 204.4358 -41.2980 48.9414 -128.1770 309.2594  0.0000  0.0000 -0.0000 259.1235 48.9414 -95.9856
Element 131
e_11      e_22      e_33     e_12      s_11       s_22       s_33      s_12      VM      e_1      e_2      e_3      s_1      s_2      s_3 
 0.0000 -0.0000  0.0000 -0.0000 95.7876 19.6357 34.6270 -242.1881 425.2616  0.0000  0.0000 -0.0000 302.8745 34.6270 -187.4512
Element 132
e_11      e_22      e_33     e_12      s_11       s_22       s_33      s_12      VM      e_1      e_2      e_3      s_1      s_2      s_3 
 0.0000 -0.0000  0.0000 -0.0000 45.6782 -30.3912  4.5861 -262.2641 459.0170  0.0000  0.0000 -0.0000 272.6512  4.5861 -257.3642
Element 133
e_11      e_22      e_33     e_12      s_11       s_22       s_33      s_12      VM      e_1      e_2      e_3      s_1      s_2      s_3 
 0.0000 -0.0000  0.0000 -0.0000 151.2253 -22.9923 38.4699 -346.3849 619.1680  0.0000  0.0000 -0.0000 421.2866 38.4699 -293.0535
Element 134
e_11      e_22      e_33     e_12      s_11       s_22       s_33      s_12      VM      e_1      e_2      e_3      s_1      s_2      s_3 
-0.0000  0.0000  0.0000 -0.0000 -174.8861 -18.6370 -58.0569 -373.9065 662.7418  0.0000  0.0000 -0.0001 285.2195 -58.0569 -478.7426
Element 135
e_11      e_22      e_33     e_12      s_11       s_22       s_33      s_12      VM      e_1      e_2      e_3      s_1      s_2      s_3 
 0.0000 -0.0000  0.0000 -0.0000 170.5208 22.0112 57.7596 -370.7707 656.0768  0.0001  0.0000 -0.0000 474.3991 57.7596 -281.8672
Element 136
e_11      e_22      e_33     e_12      s_11       s_22       s_33      s_12      VM      e_1      e_2      e_3      s_1      s_2      s_3 
 0.0000 -0.0000  0.0000 -0.0000 138.8874 17.7049 46.9777 -369.8454 649.8858  0.0001  0.0000 -0.0000 453.0719 46.9777 -296.4796
Element 137
e_11      e_22      e_33     e_12      s_11       s_22       s_33      s_12      VM      e_1      e_2      e_3      s_1      s_2      s_3 
-0.0000  0.0000  0.0000 -0.0000 -132.1830 -13.0801 -43.5789 -375.0698 658.4188  0.0000  0.0000 -0.0001 307.1364 -43.5789 -452.3996
Element 138
e_11      e_22      e_33     e_12      s_11       s_22       s_33      s_12      VM      e_1      e_2      e_3      s_1      s_2      s_3 
 0.0000 -0.0000  0.0000 -0.0000 108.1191 12.1141 36.0700 -368.4664 644.0446  0.0001  0.0000 -0.0000 431.6967 36.0700 -311.4635
Element 139
e_11      e_22      e_33     e_12      s_11       s_22       s_33      s_12      VM      e_1      e_2      e_3      s_1      s_2      s_3 
 0.0000 -0.0000  0.0000 -0.0000 257.0696 -18.1471 71.6767 -267.5293 523.2660  0.0000  0.0000 -0.0000 420.3067 71.6767 -181.3842
Element 140
e_11      e_22      e_33     e_12      s_11       s_22       s_33      s_12      VM      e_1      e_2      e_3      s_1      s_2      s_3 
 0.0000 -0.0000  0.0000 -0.0000 270.2083  8.6493 83.6573 -344.2128 640.2091  0.0001  0.0000 -0.0000 507.6485 83.6573 -228.7909
Element 141
e_11      e_22      e_33     e_12      s_11       s_22       s_33      s_12      VM      e_1      e_2      e_3      s_1      s_2      s_3 
 0.0000 -0.0000  0.0000 -0.0000 96.3332 -13.6863 24.7941 -345.9396 606.9382  0.0000  0.0000 -0.0000 391.6094 24.7941 -308.9625
Element 142
e_11      e_22      e_33     e_12      s_11       s_22       s_33      s_12      VM      e_1      e_2      e_3      s_1      s_2      s_3 
 0.0000 -0.0000  0.0000 -0.0000 550.5903 22.5755 171.9497 -249.1275 639.0884  0.0001  0.0000 -0.0000 649.5766 171.9497 -76.4108
Element 143
e_11      e_22      e_33     e_12      s_11       s_22       s_33      s_12      VM      e_1      e_2      e_3      s_1      s_2      s_3 
-0.0001  0.0001  0.0000 -0.0000 -1475.5000 -39.3316 -454.4495 -246.6110 1349.5089  0.0001  0.0000 -0.0001  1.8351 -454.4495 -1516.6667
Element 144
e_11      e_22      e_33     e_12      s_11       s_22       s_33      s_12      VM      e_1      e_2      e_3      s_1      s_2      s_3 
-0.0001  0.0000  0.0000 -0.0000 -903.5610 42.5656 -258.2986 -265.0370 954.8576  0.0000  0.0000 -0.0001 111.7508 -258.2986 -972.7463
Element 145
e_11      e_22      e_33     e_12      s_11       s_22       s_33      s_12      VM      e_1      e_2      e_3      s_1      s_2      s_3 
 0.0000 -0.0000  0.0000 -0.0000 470.6522 21.5331 147.6556 -342.8998 716.7368  0.0001  0.0000 -0.0000 655.9795 147.6556 -163.7942
Element 146
e_11      e_22      e_33     e_12      s_11       s_22       s_33      s_12      VM      e_1      e_2      e_3      s_1      s_2      s_3 
 0.0000 -0.0000  0.0000 -0.0000 123.0179 -18.4502 31.3703 -346.9932 613.7264  0.0000  0.0000 -0.0000 406.4132 31.3703 -301.8455
Element 147
e_11      e_22      e_33     e_12      s_11       s_22       s_33      s_12      VM      e_1      e_2      e_3      s_1      s_2      s_3 
 0.0001 -0.0000  0.0000 -0.0000 714.6341 26.1873 222.2464 -250.4974 752.1095  0.0001  0.0000 -0.0000 796.1321 222.2464 -55.3107
Element 148
e_11      e_22      e_33     e_12      s_11       s_22       s_33      s_12      VM      e_1      e_2      e_3      s_1      s_2      s_3 
 0.0000 -0.0000  0.0000 -0.0000 451.0220 -24.1713 128.0552 -263.8854 620.9276  0.0001  0.0000 -0.0000 568.5136 128.0552 -141.6630
Element 149
e_11      e_22      e_33     e_12      s_11       s_22       s_33      s_12      VM      e_1      e_2      e_3      s_1      s_2      s_3 
 0.0000 -0.0000  0.0000 -0.0000 354.6920 -20.5408 100.2454 -266.0486 567.8130  0.0001  0.0000 -0.0000 492.6241 100.2454 -158.4728
Element 150
e_11      e_22      e_33     e_12      s_11       s_22       s_33      s_12      VM      e_1      e_2      e_3      s_1      s_2      s_3 
 0.0000 -0.0000  0.0000 -0.0000 370.8393 15.6145 115.9361 -343.2564 673.8599  0.0001  0.0000 -0.0000 579.7125 115.9361 -193.2587
Element 151
e_11      e_22      e_33     e_12      s_11       s_22       s_33      s_12      VM      e_1      e_2      e_3      s_1      s_2      s_3 
-0.0001  0.0000  0.0000 -0.0000 -1304.8365 -32.1500 -401.0959 -248.9780 1213.3711  0.0001  0.0000 -0.0001 14.8242 -401.0959 -1351.8107
Element 152
e_11      e_22      e_33     e_12      s_11       s_22       s_33      s_12      VM      e_1      e_2      e_3      s_1      s_2      s_3 
-0.0001  0.0000  0.0000 -0.0000 -810.0138 34.7978 -232.5648 -262.7803 875.4877  0.0000  0.0000 -0.0001 109.8658 -232.5648 -885.0817
Element 153
e_11      e_22      e_33     e_12      s_11       s_22       s_33      s_12      VM      e_1      e_2      e_3      s_1      s_2      s_3 
 0.0000 -0.0000  0.0000 -0.0001 350.9095 52.2814 120.9573 -389.5042 726.9987  0.0001  0.0000 -0.0000 618.7384 120.9573 -215.5475
Element 154
e_11      e_22      e_33     e_12      s_11       s_22       s_33      s_12      VM      e_1      e_2      e_3      s_1      s_2      s_3 
 0.0001 -0.0000  0.0000 -0.0000 967.1336 32.7337 299.9602 -334.8898 1015.5148  0.0001  0.0000 -0.0000 1074.7614 299.9602 -74.8941
Element 155
e_11      e_22      e_33     e_12      s_11       s_22       s_33      s_12      VM      e_1      e_2      e_3      s_1      s_2      s_3 
 0.0000 -0.0000  0.0000 -0.0000 305.8359 -54.5751 75.3782 -350.6147 684.6454  0.0001  0.0000 -0.0000 519.8444 75.3782 -268.5836
Element 156
e_11      e_22      e_33     e_12      s_11       s_22       s_33      s_12      VM      e_1      e_2      e_3      s_1      s_2      s_3 
-0.0000  0.0000  0.0000 -0.0000 -247.1356 -24.8696 -81.6015 -368.5340 668.9268  0.0000  0.0000 -0.0001 248.9232 -81.6015 -520.9284
Element 157
e_11      e_22      e_33     e_12      s_11       s_22       s_33      s_12      VM      e_1      e_2      e_3      s_1      s_2      s_3 
-0.0001  0.0000  0.0000 -0.0000 -1134.9133 -22.5133 -347.2280 -251.0741 1082.0238  0.0000  0.0000 -0.0001 31.5298 -347.2280 -1188.9564
Element 158
e_11      e_22      e_33     e_12      s_11       s_22       s_33      s_12      VM      e_1      e_2      e_3      s_1      s_2      s_3 
-0.0001  0.0000  0.0000 -0.0000 -714.6617 29.4044 -205.5772 -262.6308 800.5834  0.0000  0.0000 -0.0001 112.7652 -205.5772 -798.0225
Element 159
e_11      e_22      e_33     e_12      s_11       s_22       s_33      s_12      VM      e_1      e_2      e_3      s_1      s_2      s_3 
-0.0001  0.0000  0.0000 -0.0000 -739.9778 -26.5166 -229.9483 -338.9492 865.9852  0.0000  0.0000 -0.0001 108.8333 -229.9483 -875.3278
Element 160
e_11      e_22      e_33     e_12      s_11       s_22       s_33      s_12      VM      e_1      e_2      e_3      s_1      s_2      s_3 
-0.0000  0.0000  0.0000 -0.0000 -223.5566 28.3988 -58.5473 -343.5478 634.9881  0.0000  0.0000 -0.0001 268.3384 -58.5473 -463.4962
Element 161
e_11      e_22      e_33     e_12      s_11       s_22       s_33      s_12      VM      e_1      e_2      e_3      s_1      s_2      s_3 
-0.0001  0.0000  0.0000 -0.0000 -645.2956 -23.3595 -200.5965 -336.0210 804.1876  0.0000  0.0000 -0.0001 123.5056 -200.5965 -792.1608
Element 162
e_11      e_22      e_33     e_12      s_11       s_22       s_33      s_12      VM      e_1      e_2      e_3      s_1      s_2      s_3 
-0.0001  0.0000  0.0000 -0.0000 -618.6463 30.7928 -176.3561 -258.8526 728.8108  0.0000  0.0000 -0.0001 121.3411 -176.3561 -709.1947
Element 163
e_11      e_22      e_33     e_12      s_11       s_22       s_33      s_12      VM      e_1      e_2      e_3      s_1      s_2      s_3 
-0.0001  0.0000  0.0000 -0.0000 -839.6612 -33.2613 -261.8768 -339.8495 929.8835  0.0000  0.0000 -0.0001 90.8601 -261.8768 -963.7827
Element 164
e_11      e_22      e_33     e_12      s_11       s_22       s_33      s_12      VM      e_1      e_2      e_3      s_1      s_2      s_3 
-0.0000  0.0000  0.0000 -0.0000 -253.6057 29.0257 -67.3740 -343.6623 645.1660  0.0000  0.0000 -0.0001 259.2930 -67.3740 -483.8730
Element 165
e_11      e_22      e_33     e_12      s_11       s_22       s_33      s_12      VM      e_1      e_2      e_3      s_1      s_2      s_3 
-0.0001  0.0000  0.0000 -0.0000 -939.7754 -41.5566 -294.3996 -343.1336 998.4189  0.0000  0.0000 -0.0001 74.5241 -294.3996 -1055.8562
Element 166
e_11      e_22      e_33     e_12      s_11       s_22       s_33      s_12      VM      e_1      e_2      e_3      s_1      s_2      s_3 
-0.0000  0.0000  0.0000 -0.0000 -284.6903 29.9162 -76.4322 -340.0126 650.8879  0.0000  0.0000 -0.0001 247.2499 -76.4322 -502.0240
Element 167
e_11      e_22      e_33     e_12      s_11       s_22       s_33      s_12      VM      e_1      e_2      e_3      s_1      s_2      s_3 
-0.0000  0.0000  0.0000 -0.0000 -316.0883 29.4749 -85.9840 -331.3414 649.7751  0.0000  0.0000 -0.0001 230.3784 -85.9840 -516.9919
Element 168
e_11      e_22      e_33     e_12      s_11       s_22       s_33      s_12      VM      e_1      e_2      e_3      s_1      s_2      s_3 
-0.0000  0.0000  0.0000 -0.0000 -343.3939 -33.7737 -113.1503 -353.4843 672.6382  0.0000  0.0000 -0.0001 197.3142 -113.1503 -574.4819
Element 169
e_11      e_22      e_33     e_12      s_11       s_22       s_33      s_12      VM      e_1      e_2      e_3      s_1      s_2      s_3 
-0.0000  0.0000  0.0000 -0.0000 -278.1584 -27.4454 -91.6811 -366.6998 674.0065  0.0000  0.0000 -0.0001 234.7326 -91.6811 -540.3364
Element 170
e_11      e_22      e_33     e_12      s_11       s_22       s_33      s_12      VM      e_1      e_2      e_3      s_1      s_2      s_3 
 0.0000 -0.0000  0.0000 -0.0000 239.6717 31.0386 81.2131 -373.4942 673.8480  0.0001  0.0000 -0.0000 523.1436 81.2131 -252.4333
Element 171
e_11      e_22      e_33     e_12      s_11       s_22       s_33      s_12      VM      e_1      e_2      e_3      s_1      s_2      s_3 
 0.0000 -0.0000  0.0000 -0.0000 214.6973 -28.5214 55.8528 -342.2644 630.2283  0.0001  0.0000 -0.0000 456.3148 55.8528 -270.1389
Element 172
e_11      e_22      e_33     e_12      s_11       s_22       s_33      s_12      VM      e_1      e_2      e_3      s_1      s_2      s_3 
 0.0001 -0.0000  0.0000 -0.0000 769.8336 34.1986 241.2097 -343.4293 886.3176  0.0001  0.0000 -0.0000 905.2391 241.2097 -101.2069
Element 173
e_11      e_22      e_33     e_12      s_11       s_22       s_33      s_12      VM      e_1      e_2      e_3      s_1      s_2      s_3 
 0.0000 -0.0000  0.0000 -0.0000 275.3317 34.2322 92.8692 -375.4002 685.7156  0.0001  0.0000 -0.0000 549.0630 92.8692 -239.4991
Element 174
e_11      e_22      e_33     e_12      s_11       s_22       s_33      s_12      VM      e_1      e_2      e_3      s_1      s_2      s_3 
 0.0000 -0.0000  0.0000 -0.0000 310.8762 39.1873 105.0190 -378.7462 700.4349  0.0001  0.0000 -0.0000 577.4027 105.0190 -227.3393
Element 175
e_11      e_22      e_33     e_12      s_11       s_22       s_33      s_12      VM      e_1      e_2      e_3      s_1      s_2      s_3 
-0.0000  0.0000  0.0000 -0.0000 -310.8622 -30.6892 -102.4654 -362.1226 675.9714  0.0000  0.0000 -0.0001 217.4987 -102.4654 -559.0501
Element 176
e_11      e_22      e_33     e_12      s_11       s_22       s_33      s_12      VM      e_1      e_2      e_3      s_1      s_2      s_3 
 0.0000 -0.0000  0.0000 -0.0000 278.3650 -37.5398 72.2476 -341.1743 652.9674  0.0001  0.0000 -0.0000 496.3765 72.2476 -255.5513
Element 177
e_11      e_22      e_33     e_12      s_11       s_22       s_33      s_12      VM      e_1      e_2      e_3      s_1      s_2      s_3 
 0.0001 -0.0000  0.0000 -0.0000 868.5090 35.2703 271.1338 -341.6237 950.5303  0.0001  0.0000 -0.0000 990.6646 271.1338 -86.8852
Element 178
e_11      e_22      e_33     e_12      s_11       s_22       s_33      s_12      VM      e_1      e_2      e_3      s_1      s_2      s_3 
 0.0000 -0.0000  0.0000 -0.0000 247.3745 -31.7725 64.6806 -340.7589 639.2586  0.0001  0.0000 -0.0000 476.0365 64.6806 -260.4345
