********************************************************
*                      VEMLab 2.1                      *
*      http://camlab.cl/research/software/vemlab       *
*------------------------------------------------------*
*               Linear Elastostatics                   *
********************************************************

Mesh filename: patch_test_20poly_elems.txt
Method: VEM2D
Date: 28-9-2018
Time: 17:44 hrs

Nodal Displacements: 
 Node      Coords         u1       u2 
1 0.00000000 0.00000000 0.00000000 0.00000000
2 0.21762096 0.00000000 0.21762096 0.21762096
3 0.22319224 0.21792183 0.22319224 0.44111407
4 0.00000000 0.24023732 0.00000000 0.24023732
5 0.00000000 0.44883944 0.00000000 0.44883944
6 0.45645874 0.00000000 0.45645874 0.45645874
7 0.72201494 0.00000000 0.72201494 0.72201494
8 1.00000000 0.00000000 1.00000000 1.00000000
9 0.26724949 0.25618421 0.26724949 0.52343370
10 0.46232234 0.16492101 0.46232234 0.62724334
11 0.28081455 0.35174747 0.28081455 0.63256202
12 0.18071117 0.47681222 0.18071117 0.65752340
13 0.22573193 0.58607584 0.22573193 0.81180777
14 0.11397125 0.73407844 0.11397125 0.84804968
15 0.00000000 0.74029840 0.00000000 0.74029840
16 0.00000000 1.00000000 0.00000000 1.00000000
17 0.55176415 0.23926377 0.55176415 0.79102792
18 0.72515482 0.15296319 0.72515482 0.87811802
19 0.79425997 0.21387010 0.79425997 1.00813006
20 1.00000000 0.16707265 1.00000000 1.16707265
21 0.45217182 0.43770437 0.45217182 0.88987619
22 0.55422207 0.34908548 0.55422207 0.90330755
23 0.45588720 0.55158885 0.45588720 1.00747605
24 0.35985343 0.62639112 0.35985343 0.98624455
25 0.37470490 0.77411114 0.37470490 1.14881604
26 0.24085310 0.85027250 0.24085310 1.09112560
27 0.22575112 1.00000000 0.22575112 1.22575112
28 0.72257833 0.43658541 0.72257833 1.15916374
29 0.79532525 0.37168716 0.79532525 1.16701241
30 1.00000000 0.41882347 1.00000000 1.41882347
31 0.58862131 0.61996617 0.58862131 1.20858747
32 0.72120836 0.54017417 0.72120836 1.26138253
33 0.59326269 0.76385033 0.59326269 1.35711302
34 0.48903332 0.83507418 0.48903332 1.32410749
35 0.49408560 1.00000000 0.49408560 1.49408560
36 0.80970915 0.61070103 0.80970915 1.42041018
37 1.00000000 0.56366235 1.00000000 1.56366235
38 0.74429813 0.82618535 0.74429813 1.57048347
39 0.80359956 0.78004875 0.80359956 1.58364831
40 0.74239152 1.00000000 0.74239152 1.74239152
41 1.00000000 0.81784927 1.00000000 1.81784927
42 1.00000000 1.00000000 1.00000000 2.00000000
Strains, Stresses, Principal Strains and Principal Stresses: 
(quantities are constant in the element)

Element 1
e_11      e_22      e_33     e_12      s_11       s_22       s_33      s_12      VM      e_1      e_2      e_3      s_1      s_2      s_3 
 1.0000  1.0000  0.0000  0.5000 19230769.2308 19230769.2308 11538461.5385 3846153.8462 10175966.5810  1.5000  0.5000  0.0000 23076923.0769 15384615.3846 11538461.5385
Element 2
e_11      e_22      e_33     e_12      s_11       s_22       s_33      s_12      VM      e_1      e_2      e_3      s_1      s_2      s_3 
 1.0000  1.0000  0.0000  0.5000 19230769.2308 19230769.2308 11538461.5385 3846153.8462 10175966.5810  1.5000  0.5000  0.0000 23076923.0769 15384615.3846 11538461.5385
Element 3
e_11      e_22      e_33     e_12      s_11       s_22       s_33      s_12      VM      e_1      e_2      e_3      s_1      s_2      s_3 
 1.0000  1.0000  0.0000  0.5000 19230769.2308 19230769.2308 11538461.5385 3846153.8462 10175966.5810  1.5000  0.5000  0.0000 23076923.0769 15384615.3846 11538461.5385
Element 4
e_11      e_22      e_33     e_12      s_11       s_22       s_33      s_12      VM      e_1      e_2      e_3      s_1      s_2      s_3 
 1.0000  1.0000  0.0000  0.5000 19230769.2308 19230769.2308 11538461.5385 3846153.8462 10175966.5810  1.5000  0.5000  0.0000 23076923.0769 15384615.3846 11538461.5385
Element 5
e_11      e_22      e_33     e_12      s_11       s_22       s_33      s_12      VM      e_1      e_2      e_3      s_1      s_2      s_3 
 1.0000  1.0000  0.0000  0.5000 19230769.2308 19230769.2308 11538461.5385 3846153.8462 10175966.5810  1.5000  0.5000  0.0000 23076923.0769 15384615.3846 11538461.5385
Element 6
e_11      e_22      e_33     e_12      s_11       s_22       s_33      s_12      VM      e_1      e_2      e_3      s_1      s_2      s_3 
 1.0000  1.0000  0.0000  0.5000 19230769.2308 19230769.2308 11538461.5385 3846153.8462 10175966.5810  1.5000  0.5000  0.0000 23076923.0769 15384615.3846 11538461.5385
Element 7
e_11      e_22      e_33     e_12      s_11       s_22       s_33      s_12      VM      e_1      e_2      e_3      s_1      s_2      s_3 
 1.0000  1.0000  0.0000  0.5000 19230769.2308 19230769.2308 11538461.5385 3846153.8462 10175966.5810  1.5000  0.5000  0.0000 23076923.0769 15384615.3846 11538461.5385
Element 8
e_11      e_22      e_33     e_12      s_11       s_22       s_33      s_12      VM      e_1      e_2      e_3      s_1      s_2      s_3 
 1.0000  1.0000  0.0000  0.5000 19230769.2308 19230769.2308 11538461.5385 3846153.8462 10175966.5810  1.5000  0.5000  0.0000 23076923.0769 15384615.3846 11538461.5385
Element 9
e_11      e_22      e_33     e_12      s_11       s_22       s_33      s_12      VM      e_1      e_2      e_3      s_1      s_2      s_3 
 1.0000  1.0000  0.0000  0.5000 19230769.2308 19230769.2308 11538461.5385 3846153.8462 10175966.5810  1.5000  0.5000  0.0000 23076923.0769 15384615.3846 11538461.5385
Element 10
e_11      e_22      e_33     e_12      s_11       s_22       s_33      s_12      VM      e_1      e_2      e_3      s_1      s_2      s_3 
 1.0000  1.0000  0.0000  0.5000 19230769.2308 19230769.2308 11538461.5385 3846153.8462 10175966.5810  1.5000  0.5000  0.0000 23076923.0769 15384615.3846 11538461.5385
Element 11
e_11      e_22      e_33     e_12      s_11       s_22       s_33      s_12      VM      e_1      e_2      e_3      s_1      s_2      s_3 
 1.0000  1.0000  0.0000  0.5000 19230769.2308 19230769.2308 11538461.5385 3846153.8462 10175966.5810  1.5000  0.5000  0.0000 23076923.0769 15384615.3846 11538461.5385
Element 12
e_11      e_22      e_33     e_12      s_11       s_22       s_33      s_12      VM      e_1      e_2      e_3      s_1      s_2      s_3 
 1.0000  1.0000  0.0000  0.5000 19230769.2308 19230769.2308 11538461.5385 3846153.8462 10175966.5810  1.5000  0.5000  0.0000 23076923.0769 15384615.3846 11538461.5385
Element 13
e_11      e_22      e_33     e_12      s_11       s_22       s_33      s_12      VM      e_1      e_2      e_3      s_1      s_2      s_3 
 1.0000  1.0000  0.0000  0.5000 19230769.2308 19230769.2308 11538461.5385 3846153.8462 10175966.5810  1.5000  0.5000  0.0000 23076923.0769 15384615.3846 11538461.5385
Element 14
e_11      e_22      e_33     e_12      s_11       s_22       s_33      s_12      VM      e_1      e_2      e_3      s_1      s_2      s_3 
 1.0000  1.0000  0.0000  0.5000 19230769.2308 19230769.2308 11538461.5385 3846153.8462 10175966.5810  1.5000  0.5000  0.0000 23076923.0769 15384615.3846 11538461.5385
Element 15
e_11      e_22      e_33     e_12      s_11       s_22       s_33      s_12      VM      e_1      e_2      e_3      s_1      s_2      s_3 
 1.0000  1.0000  0.0000  0.5000 19230769.2308 19230769.2308 11538461.5385 3846153.8462 10175966.5810  1.5000  0.5000  0.0000 23076923.0769 15384615.3846 11538461.5385
Element 16
e_11      e_22      e_33     e_12      s_11       s_22       s_33      s_12      VM      e_1      e_2      e_3      s_1      s_2      s_3 
 1.0000  1.0000  0.0000  0.5000 19230769.2308 19230769.2308 11538461.5385 3846153.8462 10175966.5810  1.5000  0.5000  0.0000 23076923.0769 15384615.3846 11538461.5385
Element 17
e_11      e_22      e_33     e_12      s_11       s_22       s_33      s_12      VM      e_1      e_2      e_3      s_1      s_2      s_3 
 1.0000  1.0000  0.0000  0.5000 19230769.2308 19230769.2308 11538461.5385 3846153.8462 10175966.5810  1.5000  0.5000  0.0000 23076923.0769 15384615.3846 11538461.5385
Element 18
e_11      e_22      e_33     e_12      s_11       s_22       s_33      s_12      VM      e_1      e_2      e_3      s_1      s_2      s_3 
 1.0000  1.0000  0.0000  0.5000 19230769.2308 19230769.2308 11538461.5385 3846153.8462 10175966.5810  1.5000  0.5000  0.0000 23076923.0769 15384615.3846 11538461.5385
Element 19
e_11      e_22      e_33     e_12      s_11       s_22       s_33      s_12      VM      e_1      e_2      e_3      s_1      s_2      s_3 
 1.0000  1.0000  0.0000  0.5000 19230769.2308 19230769.2308 11538461.5385 3846153.8462 10175966.5810  1.5000  0.5000  0.0000 23076923.0769 15384615.3846 11538461.5385
Element 20
e_11      e_22      e_33     e_12      s_11       s_22       s_33      s_12      VM      e_1      e_2      e_3      s_1      s_2      s_3 
 1.0000  1.0000  0.0000  0.5000 19230769.2308 19230769.2308 11538461.5385 3846153.8462 10175966.5810  1.5000  0.5000  0.0000 23076923.0769 15384615.3846 11538461.5385
