********************************************************
*                      VEMLab 1.0                      *
*      http://camlab.cl/research/software/vemlab       *
*------------------------------------------------------*
*               Linear Elastostatics                   *
********************************************************

Mesh filename: cantilever_beam_50poly_elems.txt
Method: VEM2D
Date: 17-2-2018
Time: 13: 7 hrs

Nodal Displacements: 
 Node      Coords         u1       u2 
1 0.00000000 -2.00000000 0.00013975 -0.00011700
2 0.00000000 -1.30204164 0.00011170 -0.00004959
3 0.90607166 -2.00000000 -0.00007503 -0.00014417
4 0.92181112 -1.42809848 -0.00003877 -0.00010256
5 0.64242734 -1.19727548 0.00000981 -0.00006702
6 0.72096135 -0.52560799 0.00000109 -0.00004168
7 0.00000000 -0.39550961 0.00003813 -0.00000458
8 0.00000000 0.26410817 -0.00002562 -0.00000204
9 1.43853027 -1.18217596 -0.00009368 -0.00015513
10 1.84978213 -1.49797682 -0.00018843 -0.00024446
11 1.85496133 -2.00000000 -0.00027571 -0.00027886
12 0.90376675 -0.40160315 -0.00000403 -0.00005411
13 1.47518080 -0.75848852 -0.00006106 -0.00014274
14 0.97215536 -0.06804254 -0.00000288 -0.00005842
15 0.68790660 0.36112688 -0.00000184 -0.00003545
16 0.81443546 0.68005574 0.00000446 -0.00005557
17 0.53554384 1.16200138 -0.00002345 -0.00005790
18 0.00000000 1.20455851 -0.00010537 -0.00004244
19 0.00000000 2.00000000 -0.00013975 -0.00011700
20 2.77948756 -2.00000000 -0.00044281 -0.00049514
21 2.35919346 -1.14885805 -0.00019320 -0.00033866
22 2.33039442 -0.83357428 -0.00013523 -0.00032029
23 1.86108449 -0.51736147 -0.00006001 -0.00020690
24 2.76189738 -1.41337636 -0.00029202 -0.00045738
25 1.63078701 0.16950187 0.00001602 -0.00015721
26 1.89145551 -0.12350762 -0.00001454 -0.00020798
27 1.66433037 0.53966303 0.00005146 -0.00016892
28 1.39269009 0.82830113 0.00005864 -0.00013234
29 1.44419673 1.23898068 0.00010048 -0.00015912
30 0.91616324 1.60136446 0.00004882 -0.00011404
31 0.88577820 2.00000000 0.00007142 -0.00014061
32 3.64430825 -2.00000000 -0.00057266 -0.00076113
33 3.24471928 -1.13055193 -0.00027143 -0.00059004
34 3.62065856 -1.30063108 -0.00035013 -0.00072068
35 3.13959873 -0.51355336 -0.00011504 -0.00053941
36 2.56820104 0.09198201 0.00001672 -0.00036807
37 2.81409174 -0.41852387 -0.00008335 -0.00043999
38 2.63934709 0.31930841 0.00005955 -0.00038863
39 2.25777385 0.76925398 0.00011842 -0.00030110
40 2.32303432 1.13089120 0.00018538 -0.00032964
41 1.85682256 1.49713242 0.00018887 -0.00024592
42 1.89107965 2.00000000 0.00028450 -0.00028626
43 4.46819808 -2.00000000 -0.00067448 -0.00106219
44 4.00265627 -1.08488722 -0.00031597 -0.00085090
45 4.47354129 -1.30627989 -0.00042144 -0.00103886
46 3.50631584 -0.27349923 -0.00006834 -0.00065723
47 4.01181345 -0.49586518 -0.00014158 -0.00084180
48 3.13369020 0.52003740 0.00011682 -0.00053853
49 3.50694486 0.28569727 0.00007268 -0.00065790
50 3.16656765 1.10008822 0.00025682 -0.00056473
51 2.74721248 1.34847322 0.00027440 -0.00045100
52 2.76971964 2.00000000 0.00044064 -0.00049366
53 5.31570965 -2.00000000 -0.00075722 -0.00141122
54 4.83462456 -1.09394578 -0.00037029 -0.00118071
55 5.33394769 -1.32186336 -0.00048225 -0.00140014
56 4.84288357 -0.50234845 -0.00016706 -0.00117388
57 4.35431073 -0.29064550 -0.00008840 -0.00097196
58 4.35611334 0.30060409 0.00009240 -0.00097276
59 3.99322660 0.51560306 0.00014765 -0.00083498
60 3.98711370 1.08718385 0.00031595 -0.00084535
61 3.60096161 1.30721212 0.00035048 -0.00071499
62 3.60612873 2.00000000 0.00056677 -0.00074877
63 5.64014191 -1.13241251 -0.00042370 -0.00153325
64 6.20096926 -1.36951275 -0.00054282 -0.00179589
65 6.22492004 -2.00000000 -0.00082109 -0.00181875
66 7.07916598 -2.00000000 -0.00085608 -0.00222284
67 8.00000000 -2.00000000 -0.00086975 -0.00267216
68 5.16442212 -0.31084023 -0.00010756 -0.00131084
69 5.69171764 -0.51039209 -0.00018810 -0.00154817
70 4.83826097 0.51586799 0.00017227 -0.00117193
71 5.16723484 0.31579628 0.00011003 -0.00131205
72 4.83466414 1.09246590 0.00037017 -0.00118048
73 4.44949474 1.31522156 0.00042310 -0.00102961
74 4.44566585 2.00000000 0.00067178 -0.00105356
75 5.87537512 -0.40331707 -0.00015125 -0.00163274
76 6.43998497 -0.55991158 -0.00021990 -0.00190103
77 6.53860073 -1.09044873 -0.00043671 -0.00195265
78 7.12004889 -1.24792274 -0.00051541 -0.00223615
79 8.00000000 -1.32176067 -0.00055577 -0.00267063
80 5.67691181 0.50576831 0.00018722 -0.00154138
81 5.97321803 0.29310684 0.00011084 -0.00167772
82 5.70006121 1.07618323 0.00040442 -0.00155907
83 5.29809605 1.31962025 0.00047991 -0.00138418
84 5.30762721 2.00000000 0.00075658 -0.00140739
85 6.44563298 0.38558805 0.00015160 -0.00190277
86 6.76474002 -0.24370243 -0.00009654 -0.00205689
87 7.12347976 -0.25677706 -0.00010361 -0.00223365
88 7.33799663 -0.50882365 -0.00020717 -0.00234036
89 8.00000000 -0.49835206 -0.00020420 -0.00266979
90 6.59775938 0.60997634 0.00024227 -0.00197707
91 6.18225520 1.30525186 0.00051501 -0.00178587
92 6.43770549 1.16714587 0.00046670 -0.00190534
93 6.13337964 2.00000000 0.00081575 -0.00177661
94 7.40539906 0.33023929 0.00013498 -0.00237322
95 7.19365016 0.62017985 0.00025296 -0.00226930
96 8.00000000 0.30965367 0.00012678 -0.00266970
97 7.06667520 1.48736731 0.00062069 -0.00221203
98 7.38015738 1.15651268 0.00048090 -0.00236345
99 7.08697955 2.00000000 0.00085840 -0.00222647
100 8.00000000 1.22475786 0.00051230 -0.00266988
101 8.00000000 2.00000000 0.00087000 -0.00267191
Strains, Stresses, Principal Strains and Principal Stresses: 
(quantities are constant in the element)

Element 1
e_11      e_22      e_33     e_12      s_11       s_22       s_33      s_12      VM      e_1      e_2      e_3      s_1      s_2      s_3 
 0.0001 -0.0001  0.0000 -0.0000 1315.5970 -0.1844 394.6238 -244.0426 1243.5205  0.0001  0.0000 -0.0001 1359.4020 394.6238 -43.9895
Element 2
e_11      e_22      e_33     e_12      s_11       s_22       s_33      s_12      VM      e_1      e_2      e_3      s_1      s_2      s_3 
 0.0000 -0.0000  0.0000 -0.0000 21.4735 -3.0835  5.5170 -346.7827 601.0329  0.0000  0.0000 -0.0000 356.1950  5.5170 -337.8050
Element 3
e_11      e_22      e_33     e_12      s_11       s_22       s_33      s_12      VM      e_1      e_2      e_3      s_1      s_2      s_3 
-0.0000  0.0000  0.0000 -0.0000 -368.9962 -4.1373 -111.9401 -136.0511 401.1737  0.0000  0.0000 -0.0000 41.0083 -111.9401 -414.1418
Element 4
e_11      e_22      e_33     e_12      s_11       s_22       s_33      s_12      VM      e_1      e_2      e_3      s_1      s_2      s_3 
-0.0000  0.0000  0.0000 -0.0000 -31.7214  1.6889 -9.0097 -342.8985 594.6524  0.0000  0.0000 -0.0000 328.2890 -9.0097 -358.3214
Element 5
e_11      e_22      e_33     e_12      s_11       s_22       s_33      s_12      VM      e_1      e_2      e_3      s_1      s_2      s_3 
-0.0001  0.0000  0.0000 -0.0000 -1115.1859 33.3125 -324.5620 -331.3750 1168.5600  0.0001  0.0000 -0.0001 122.0652 -324.5620 -1203.9386
Element 6
e_11      e_22      e_33     e_12      s_11       s_22       s_33      s_12      VM      e_1      e_2      e_3      s_1      s_2      s_3 
-0.0001  0.0001  0.0000 -0.0000 -1355.3264  8.7218 -403.9814 -120.4061 1229.4296  0.0001  0.0000 -0.0001 19.2686 -403.9814 -1365.8732
Element 7
e_11      e_22      e_33     e_12      s_11       s_22       s_33      s_12      VM      e_1      e_2      e_3      s_1      s_2      s_3 
 0.0000 -0.0000  0.0000 -0.0000 501.1123 -0.4564 150.1968 -291.9547 674.1049  0.0001  0.0000 -0.0000 635.2050 150.1968 -134.5491
Element 8
e_11      e_22      e_33     e_12      s_11       s_22       s_33      s_12      VM      e_1      e_2      e_3      s_1      s_2      s_3 
-0.0001  0.0000  0.0000 -0.0000 -838.0504 -3.4549 -252.4516 -268.7529 876.0261  0.0000  0.0000 -0.0001 75.5995 -252.4516 -917.1048
Element 9
e_11      e_22      e_33     e_12      s_11       s_22       s_33      s_12      VM      e_1      e_2      e_3      s_1      s_2      s_3 
-0.0000  0.0000  0.0000 -0.0000 -381.9328 -0.0430 -114.5928 -287.9302 603.2640  0.0000  0.0000 -0.0001 154.5027 -114.5928 -536.4785
Element 10
e_11      e_22      e_33     e_12      s_11       s_22       s_33      s_12      VM      e_1      e_2      e_3      s_1      s_2      s_3 
 0.0000 -0.0000  0.0000 -0.0000  1.7264  0.5253  0.6755 -342.0886 592.5159  0.0000  0.0000 -0.0000 343.2150  0.6755 -340.9633
Element 11
e_11      e_22      e_33     e_12      s_11       s_22       s_33      s_12      VM      e_1      e_2      e_3      s_1      s_2      s_3 
-0.0001  0.0000  0.0000 -0.0000 -1053.7120 -0.0460 -316.1274 -271.3929 1047.8729  0.0000  0.0000 -0.0001 65.7483 -316.1274 -1119.5063
Element 12
e_11      e_22      e_33     e_12      s_11       s_22       s_33      s_12      VM      e_1      e_2      e_3      s_1      s_2      s_3 
-0.0001  0.0000  0.0000 -0.0000 -590.2206  0.0529 -177.0503 -296.1712 733.7583  0.0000  0.0000 -0.0001 123.0346 -177.0503 -713.2024
Element 13
e_11      e_22      e_33     e_12      s_11       s_22       s_33      s_12      VM      e_1      e_2      e_3      s_1      s_2      s_3 
 0.0001 -0.0000  0.0000 -0.0000 950.9391 -25.7788 277.5481 -332.8588 1040.2428  0.0001  0.0000 -0.0001 1053.5873 277.5481 -128.4270
Element 14
e_11      e_22      e_33     e_12      s_11       s_22       s_33      s_12      VM      e_1      e_2      e_3      s_1      s_2      s_3 
-0.0000  0.0000  0.0000 -0.0000 -13.9152 -0.1641 -4.2238 -343.2386 594.6326  0.0000  0.0000 -0.0000 336.2678 -4.2238 -350.3471
Element 15
e_11      e_22      e_33     e_12      s_11       s_22       s_33      s_12      VM      e_1      e_2      e_3      s_1      s_2      s_3 
 0.0001 -0.0001  0.0000 -0.0000 1630.8267 -10.5743 486.0757 -117.5200 1472.1038  0.0001  0.0000 -0.0001 1639.1981 486.0757 -18.9457
Element 16
e_11      e_22      e_33     e_12      s_11       s_22       s_33      s_12      VM      e_1      e_2      e_3      s_1      s_2      s_3 
 0.0002 -0.0001  0.0000 -0.0000 1983.1103 -17.4289 589.7044 -105.7117 1785.9728  0.0002  0.0000 -0.0001 1988.6807 589.7044 -22.9994
Element 17
e_11      e_22      e_33     e_12      s_11       s_22       s_33      s_12      VM      e_1      e_2      e_3      s_1      s_2      s_3 
 0.0001 -0.0000  0.0000 -0.0000 783.3281 -1.4119 234.5749 -291.0439 860.4871  0.0001  0.0000 -0.0000 879.4873 234.5749 -97.5711
Element 18
e_11      e_22      e_33     e_12      s_11       s_22       s_33      s_12      VM      e_1      e_2      e_3      s_1      s_2      s_3 
-0.0000  0.0000  0.0000 -0.0000 -322.2063 -2.1789 -97.3156 -317.9019 619.8444  0.0000  0.0000 -0.0001 193.7091 -97.3156 -518.0943
Element 19
e_11      e_22      e_33     e_12      s_11       s_22       s_33      s_12      VM      e_1      e_2      e_3      s_1      s_2      s_3 
 0.0001 -0.0000  0.0000 -0.0000 1103.0289 -8.1737 328.4565 -133.6565 1013.7154  0.0001  0.0000 -0.0000 1118.8791 328.4565 -24.0240
Element 20
e_11      e_22      e_33     e_12      s_11       s_22       s_33      s_12      VM      e_1      e_2      e_3      s_1      s_2      s_3 
-0.0002  0.0001  0.0000 -0.0000 -1658.4742 11.9277 -493.9639 -117.8208 1497.5887  0.0001  0.0000 -0.0002 20.1972 -493.9639 -1666.7437
Element 21
e_11      e_22      e_33     e_12      s_11       s_22       s_33      s_12      VM      e_1      e_2      e_3      s_1      s_2      s_3 
 0.0000 -0.0000  0.0000 -0.0000 125.0550 -10.2186 34.4509 -131.3137 256.8688  0.0000  0.0000 -0.0000 205.1275 34.4509 -90.2911
Element 22
e_11      e_22      e_33     e_12      s_11       s_22       s_33      s_12      VM      e_1      e_2      e_3      s_1      s_2      s_3 
 0.0000 -0.0000  0.0000 -0.0000 394.4881 -6.6095 116.3636 -127.0467 418.4496  0.0000  0.0000 -0.0000 431.3434 116.3636 -43.4648
Element 23
e_11      e_22      e_33     e_12      s_11       s_22       s_33      s_12      VM      e_1      e_2      e_3      s_1      s_2      s_3 
 0.0002 -0.0001  0.0000 -0.0000 2115.1967 -55.6336 617.8689 -125.4817 1936.8240  0.0002  0.0000 -0.0001 2122.4259 617.8689 -62.8628
Element 24
e_11      e_22      e_33     e_12      s_11       s_22       s_33      s_12      VM      e_1      e_2      e_3      s_1      s_2      s_3 
-0.0000  0.0000  0.0000 -0.0000 -291.8418 -1.3751 -87.9651 -279.8869 549.2970  0.0000  0.0000 -0.0000 168.7158 -87.9651 -461.9327
Element 25
e_11      e_22      e_33     e_12      s_11       s_22       s_33      s_12      VM      e_1      e_2      e_3      s_1      s_2      s_3 
 0.0000 -0.0000  0.0000 -0.0000 308.2839  1.7316 93.0047 -344.5807 656.1499  0.0001  0.0000 -0.0000 532.1409 93.0047 -222.1254
Element 26
e_11      e_22      e_33     e_12      s_11       s_22       s_33      s_12      VM      e_1      e_2      e_3      s_1      s_2      s_3 
-0.0001  0.0000  0.0000 -0.0000 -857.9480  5.3310 -255.7851 -133.8359 801.0945  0.0000  0.0000 -0.0001 25.6038 -255.7851 -878.2208
Element 27
e_11      e_22      e_33     e_12      s_11       s_22       s_33      s_12      VM      e_1      e_2      e_3      s_1      s_2      s_3 
-0.0000  0.0000  0.0000 -0.0000 -495.5698 -1.1957 -149.0297 -291.4068 669.2750  0.0000  0.0000 -0.0001 133.7420 -149.0297 -630.5075
Element 28
e_11      e_22      e_33     e_12      s_11       s_22       s_33      s_12      VM      e_1      e_2      e_3      s_1      s_2      s_3 
-0.0000  0.0000  0.0000 -0.0000 -139.9406  1.7299 -41.4632 -299.1862 533.2486  0.0000  0.0000 -0.0000 238.3520 -41.4632 -376.5627
Element 29
e_11      e_22      e_33     e_12      s_11       s_22       s_33      s_12      VM      e_1      e_2      e_3      s_1      s_2      s_3 
-0.0001  0.0000  0.0000 -0.0000 -1088.2377  6.6720 -324.4697 -133.5605 999.7135  0.0000  0.0000 -0.0001 22.7286 -324.4697 -1104.2944
Element 30
e_11      e_22      e_33     e_12      s_11       s_22       s_33      s_12      VM      e_1      e_2      e_3      s_1      s_2      s_3 
-0.0000  0.0000  0.0000 -0.0000 -75.3750 -0.1639 -22.6617 -277.1394 484.6540  0.0000  0.0000 -0.0000 241.9097 -22.6617 -317.4486
Element 31
e_11      e_22      e_33     e_12      s_11       s_22       s_33      s_12      VM      e_1      e_2      e_3      s_1      s_2      s_3 
-0.0000  0.0000  0.0000 -0.0000 -338.0420 -7.0314 -103.5220 -322.0406 630.9275  0.0000  0.0000 -0.0001 189.5436 -103.5220 -534.6170
Element 32
e_11      e_22      e_33     e_12      s_11       s_22       s_33      s_12      VM      e_1      e_2      e_3      s_1      s_2      s_3 
-0.0001  0.0000  0.0000 -0.0000 -627.6195  6.4342 -186.3556 -131.3922 607.2435  0.0000  0.0000 -0.0001 32.5836 -186.3556 -653.7689
Element 33
e_11      e_22      e_33     e_12      s_11       s_22       s_33      s_12      VM      e_1      e_2      e_3      s_1      s_2      s_3 
-0.0000  0.0000  0.0000 -0.0000 -0.7851  0.4766 -0.0925 -341.3703 591.2717  0.0000  0.0000 -0.0000 341.2167 -0.0925 -341.5251
Element 34
e_11      e_22      e_33     e_12      s_11       s_22       s_33      s_12      VM      e_1      e_2      e_3      s_1      s_2      s_3 
 0.0000 -0.0000  0.0000 -0.0000  2.3608 -1.6523  0.2125 -342.2088 592.7332  0.0000  0.0000 -0.0000 342.5689  0.2125 -341.8604
Element 35
e_11      e_22      e_33     e_12      s_11       s_22       s_33      s_12      VM      e_1      e_2      e_3      s_1      s_2      s_3 
 0.0000 -0.0000  0.0000 -0.0000 251.3688  1.5384 75.8721 -293.4780 554.7594  0.0000  0.0000 -0.0000 445.4099 75.8721 -192.5028
Element 36
e_11      e_22      e_33     e_12      s_11       s_22       s_33      s_12      VM      e_1      e_2      e_3      s_1      s_2      s_3 
 0.0000 -0.0000  0.0000 -0.0000 383.5323  1.9298 115.6386 -290.7559 607.2690  0.0001  0.0000 -0.0000 540.5013 115.6386 -155.0392
Element 37
e_11      e_22      e_33     e_12      s_11       s_22       s_33      s_12      VM      e_1      e_2      e_3      s_1      s_2      s_3 
 0.0000 -0.0000  0.0000 -0.0000 471.8927 -2.3204 140.8717 -334.6995 716.6239  0.0001  0.0000 -0.0000 644.9609 140.8717 -175.3886
Element 38
e_11      e_22      e_33     e_12      s_11       s_22       s_33      s_12      VM      e_1      e_2      e_3      s_1      s_2      s_3 
-0.0002  0.0001  0.0000 -0.0000 -2104.2966 68.4187 -610.7634 -110.9896 1934.7524  0.0001  0.0000 -0.0002 74.0737 -610.7634 -2109.9516
Element 39
e_11      e_22      e_33     e_12      s_11       s_22       s_33      s_12      VM      e_1      e_2      e_3      s_1      s_2      s_3 
-0.0000  0.0000  0.0000 -0.0000 -117.6318 13.2398 -31.3176 -125.1067 245.4313  0.0000  0.0000 -0.0000 88.9901 -31.3176 -193.3822
Element 40
e_11      e_22      e_33     e_12      s_11       s_22       s_33      s_12      VM      e_1      e_2      e_3      s_1      s_2      s_3 
-0.0001  0.0000  0.0000 -0.0000 -1123.5272  8.8911 -334.3908 -293.4608 1126.8685  0.0001  0.0000 -0.0001 80.4218 -334.3908 -1195.0578
Element 41
e_11      e_22      e_33     e_12      s_11       s_22       s_33      s_12      VM      e_1      e_2      e_3      s_1      s_2      s_3 
-0.0000  0.0000  0.0000 -0.0000 -124.7653 -5.0026 -38.9304 -343.5464 604.5687  0.0000  0.0000 -0.0000 283.8422 -38.9304 -413.6101
Element 42
e_11      e_22      e_33     e_12      s_11       s_22       s_33      s_12      VM      e_1      e_2      e_3      s_1      s_2      s_3 
 0.0001 -0.0000  0.0000 -0.0000 870.5059 -6.0603 259.3337 -134.1363 812.4927  0.0001  0.0000 -0.0000 890.5727 259.3337 -26.1271
Element 43
e_11      e_22      e_33     e_12      s_11       s_22       s_33      s_12      VM      e_1      e_2      e_3      s_1      s_2      s_3 
 0.0000 -0.0000  0.0000 -0.0000 50.6942  2.1125 15.8420 -339.9863 590.4691  0.0000  0.0000 -0.0000 367.2563 15.8420 -314.4496
Element 44
e_11      e_22      e_33     e_12      s_11       s_22       s_33      s_12      VM      e_1      e_2      e_3      s_1      s_2      s_3 
 0.0001 -0.0000  0.0000 -0.0000 622.7103 -2.3241 186.1158 -136.2477 603.3958  0.0001  0.0000 -0.0000 651.1189 186.1158 -30.7328
Element 45
e_11      e_22      e_33     e_12      s_11       s_22       s_33      s_12      VM      e_1      e_2      e_3      s_1      s_2      s_3 
 0.0001 -0.0000  0.0000 -0.0000 1057.0305  4.1321 318.3488 -272.1258 1048.1633  0.0001  0.0000 -0.0000 1123.2036 318.3488 -62.0410
Element 46
e_11      e_22      e_33     e_12      s_11       s_22       s_33      s_12      VM      e_1      e_2      e_3      s_1      s_2      s_3 
 0.0001 -0.0001  0.0000 -0.0000 1344.7634 -9.8558 400.4723 -127.0327 1223.0846  0.0001  0.0000 -0.0001 1356.5733 400.4723 -21.6656
Element 47
e_11      e_22      e_33     e_12      s_11       s_22       s_33      s_12      VM      e_1      e_2      e_3      s_1      s_2      s_3 
 0.0001 -0.0000  0.0000 -0.0000 615.9195 -1.4762 184.3330 -295.5846 750.3969  0.0001  0.0000 -0.0000 734.6145 184.3330 -120.1712
Element 48
e_11      e_22      e_33     e_12      s_11       s_22       s_33      s_12      VM      e_1      e_2      e_3      s_1      s_2      s_3 
 0.0000 -0.0000  0.0000 -0.0000 50.3694  0.6194 15.2966 -293.3803 510.0748  0.0000  0.0000 -0.0000 319.9274 15.2966 -268.9386
Element 49
e_11      e_22      e_33     e_12      s_11       s_22       s_33      s_12      VM      e_1      e_2      e_3      s_1      s_2      s_3 
-0.0002  0.0001  0.0000 -0.0000 -1933.1168 12.0764 -576.3121 -121.7386 1740.6634  0.0001  0.0000 -0.0002 19.6657 -576.3121 -1940.7061
Element 50
e_11      e_22      e_33     e_12      s_11       s_22       s_33      s_12      VM      e_1      e_2      e_3      s_1      s_2      s_3 
 0.0000 -0.0000  0.0000 -0.0000 191.6977  3.5925 58.5871 -255.5794 473.3136  0.0000  0.0000 -0.0000 369.9808 58.5871 -174.6906
