********************************************************
*                      VEMLab 1.0                      *
*      http://camlab.cl/research/software/vemlab       *
*------------------------------------------------------*
*               Linear Elastostatics                   *
********************************************************

Mesh filename: cantilever_beam_t3_test2.txt
Method: FEM2DT3
Date: 2-1-2018
Time: 18:11 hrs

Nodal Displacements: 
 Node      Coords         u1       u2 
1 8.00000000 -2.00000000 -0.00080389 -0.00248110
2 7.00000000 -2.00000000 -0.00079117 -0.00203827
3 8.00000000 -1.00000000 -0.00038423 -0.00249364
4 7.36418240 -1.00178991 -0.00038522 -0.00219723
5 6.45482810 -1.06034961 -0.00039294 -0.00178213
6 6.00000000 -2.00000000 -0.00074822 -0.00159953
7 8.00000000 0.00000000 0.00000187 -0.00249739
8 6.74954701 -0.13571817 -0.00004861 -0.00191034
9 5.66076055 -0.99275904 -0.00034287 -0.00143296
10 5.95447868 -0.23182561 -0.00007866 -0.00155263
11 7.15117697 0.66688434 0.00025725 -0.00209780
12 8.00000000 1.00000000 0.00038915 -0.00249485
13 5.00000000 -2.00000000 -0.00067980 -0.00118531
14 6.25375853 0.51298300 0.00018883 -0.00168673
15 4.86570247 -1.09252822 -0.00034258 -0.00111053
16 5.16191369 -0.34757930 -0.00010970 -0.00121795
17 7.34908516 1.36748395 0.00053869 -0.00219094
18 5.45938706 0.39780697 0.00013619 -0.00134120
19 6.55467392 1.25655726 0.00047751 -0.00182860
20 5.76071936 1.14195147 0.00040730 -0.00147808
21 4.13661217 -1.24539319 -0.00034869 -0.00083800
22 4.36990611 -0.46254392 -0.00012989 -0.00090941
23 8.00000000 2.00000000 0.00080797 -0.00248306
24 4.00000000 -2.00000000 -0.00057639 -0.00082051
25 4.66649753 0.28381732 0.00008764 -0.00102110
26 7.00000000 2.00000000 0.00079611 -0.00203768
27 4.96584256 1.02874350 0.00033109 -0.00114847
28 6.00000000 2.00000000 0.00074956 -0.00160022
29 3.87418512 0.16935353 0.00004457 -0.00073058
30 3.49095450 -0.61067964 -0.00014260 -0.00060452
31 3.26808819 -1.29645597 -0.00029279 -0.00055302
32 4.17145745 0.91294183 0.00025221 -0.00084983
33 5.00000000 2.00000000 0.00067525 -0.00119347
34 3.00000000 -2.00000000 -0.00043952 -0.00051096
35 3.08708955 0.08118380 0.00001475 -0.00047643
36 2.68936644 -0.61422825 -0.00010766 -0.00037249
37 3.35078412 1.02656010 0.00023521 -0.00056859
38 4.00000000 2.00000000 0.00057968 -0.00081591
39 2.29162077 -1.30843472 -0.00020007 -0.00029672
40 2.00000000 -2.00000000 -0.00026743 -0.00027757
41 2.61948882 0.67282719 0.00011836 -0.00035580
42 1.88949071 -0.62558717 -0.00006979 -0.00019182
43 2.10980190 0.13044583 0.00001986 -0.00022710
44 2.70326787 1.34959902 0.00025344 -0.00039862
45 3.00000000 2.00000000 0.00044997 -0.00051663
46 1.39333191 -1.10727224 -0.00007620 -0.00012184
47 1.98284287 0.97184965 0.00011713 -0.00022521
48 1.32747724 -0.19261231 -0.00001118 -0.00009368
49 1.00000000 -2.00000000 -0.00007036 -0.00013968
50 2.00000000 2.00000000 0.00027608 -0.00028058
51 1.27311230 0.60298849 0.00003297 -0.00009475
52 1.39106314 1.35462257 0.00009675 -0.00014369
53 0.66983812 -0.51755810 0.00000578 -0.00003642
54 0.62930183 0.36130931 -0.00000552 -0.00002460
55 0.69936663 1.19827655 -0.00000165 -0.00006350
56 0.00000000 -2.00000000 0.00013975 -0.00011700
57 1.00000000 2.00000000 0.00007671 -0.00014697
58 0.00000000 -1.00000000 0.00009059 -0.00002925
59 0.00000000 0.00000000 -0.00000000 -0.00000000
60 0.00000000 1.00000000 -0.00009059 -0.00002925
61 0.00000000 2.00000000 -0.00013975 -0.00011700
Strains, Stresses, Principal Strains and Principal Stresses: 
(quantities are constant in the element)

Element 1
e_11      e_22      e_33     e_12      s_11       s_22       s_33      s_12      VM      e_1      e_2      e_3      s_1      s_2      s_3 
-0.0002  0.0001  0.0000 -0.0000 -2322.1697 -30.9299 -705.9299 -552.6231 2252.7749  0.0001  0.0000 -0.0002 95.3925 -705.9299 -2448.4921
Element 2
e_11      e_22      e_33     e_12      s_11       s_22       s_33      s_12      VM      e_1      e_2      e_3      s_1      s_2      s_3 
-0.0002  0.0001  0.0000 -0.0000 -2187.0283 -49.9634 -671.0975 -443.0618 2052.8910  0.0001  0.0000 -0.0002 38.2520 -671.0975 -2275.2436
Element 3
e_11      e_22      e_33     e_12      s_11       s_22       s_33      s_12      VM      e_1      e_2      e_3      s_1      s_2      s_3 
-0.0001  0.0000  0.0000 -0.0000 -1290.1930 -29.2603 -395.8360 -139.1646 1149.0005  0.0000  0.0000 -0.0001 -14.0839 -395.8360 -1305.3694
Element 4
e_11      e_22      e_33     e_12      s_11       s_22       s_33      s_12      VM      e_1      e_2      e_3      s_1      s_2      s_3 
-0.0001  0.0001  0.0000 -0.0000 -1217.0229 246.7869 -291.0708 -536.3587 1583.5879  0.0001  0.0000 -0.0001 422.2769 -291.0708 -1392.5129
Element 5
e_11      e_22      e_33     e_12      s_11       s_22       s_33      s_12      VM      e_1      e_2      e_3      s_1      s_2      s_3 
-0.0001  0.0000  0.0000 -0.0001 -657.2881 39.7337 -185.2663 -941.2789 1742.8862  0.0001  0.0000 -0.0001 694.9487 -185.2663 -1312.5031
Element 6
e_11      e_22      e_33     e_12      s_11       s_22       s_33      s_12      VM      e_1      e_2      e_3      s_1      s_2      s_3 
-0.0000  0.0000  0.0000 -0.0000 47.2384 144.8820 57.6361 -450.2695 785.4011  0.0000  0.0000 -0.0000 548.9687 57.6361 -356.8484
Element 7
e_11      e_22      e_33     e_12      s_11       s_22       s_33      s_12      VM      e_1      e_2      e_3      s_1      s_2      s_3 
 0.0000 -0.0000  0.0000 -0.0001 413.3389 -144.2833 80.7167 -868.4424 1580.7211  0.0001  0.0000 -0.0001 1046.6285 80.7167 -777.5730
Element 8
e_11      e_22      e_33     e_12      s_11       s_22       s_33      s_12      VM      e_1      e_2      e_3      s_1      s_2      s_3 
-0.0000  0.0000  0.0000 -0.0001 -202.7008 14.4400 -56.4782 -810.5338 1416.9247  0.0000  0.0000 -0.0001 723.6425 -56.4782 -911.9034
Element 9
e_11      e_22      e_33     e_12      s_11       s_22       s_33      s_12      VM      e_1      e_2      e_3      s_1      s_2      s_3 
-0.0001  0.0000  0.0000 -0.0000 -655.3752 -20.8043 -202.8539 -245.5442 707.9371  0.0000  0.0000 -0.0001 63.1110 -202.8539 -739.2905
Element 10
e_11      e_22      e_33     e_12      s_11       s_22       s_33      s_12      VM      e_1      e_2      e_3      s_1      s_2      s_3 
 0.0000 -0.0000  0.0000 -0.0000 461.8720 103.8493 169.7164 -366.5154 715.4980  0.0000  0.0000 -0.0000 690.7560 169.7164 -125.0347
Element 11
e_11      e_22      e_33     e_12      s_11       s_22       s_33      s_12      VM      e_1      e_2      e_3      s_1      s_2      s_3 
 0.0001 -0.0000  0.0000 -0.0000 1485.1323 159.5888 493.4163 -329.4886 1323.5149  0.0001  0.0000 -0.0000 1562.5153 493.4163 82.2058
Element 12
e_11      e_22      e_33     e_12      s_11       s_22       s_33      s_12      VM      e_1      e_2      e_3      s_1      s_2      s_3 
 0.0000 -0.0000  0.0000 -0.0001 146.6311 -75.9967 21.1903 -836.2573 1461.2840  0.0001  0.0000 -0.0001 878.9505 21.1903 -808.3161
Element 13
e_11      e_22      e_33     e_12      s_11       s_22       s_33      s_12      VM      e_1      e_2      e_3      s_1      s_2      s_3 
-0.0000  0.0000  0.0000 -0.0000 -122.2226 -14.5642 -41.0360 -386.9486 677.2214  0.0000  0.0000 -0.0000 322.2814 -41.0360 -459.0682
Element 14
e_11      e_22      e_33     e_12      s_11       s_22       s_33      s_12      VM      e_1      e_2      e_3      s_1      s_2      s_3 
 0.0001 -0.0000  0.0000 -0.0000 593.8583 -5.2179 176.5921 -367.3409 829.3655  0.0001  0.0000 -0.0000 768.3059 176.5921 -179.6655
Element 15
e_11      e_22      e_33     e_12      s_11       s_22       s_33      s_12      VM      e_1      e_2      e_3      s_1      s_2      s_3 
 0.0001 -0.0000  0.0000 -0.0000 863.8065 -63.6605 240.0438 -701.3126 1465.0165  0.0001  0.0000 -0.0001 1240.8393 240.0438 -440.6933
Element 16
e_11      e_22      e_33     e_12      s_11       s_22       s_33      s_12      VM      e_1      e_2      e_3      s_1      s_2      s_3 
 0.0001 -0.0000  0.0000 -0.0000 636.4883 -66.6889 170.9398 -729.9865 1408.0025  0.0001  0.0000 -0.0001 1095.1433 170.9398 -525.3440
Element 17
e_11      e_22      e_33     e_12      s_11       s_22       s_33      s_12      VM      e_1      e_2      e_3      s_1      s_2      s_3 
-0.0001  0.0000  0.0000 -0.0000 -594.5258 -42.9854 -191.2534 -711.1934 1327.3254  0.0000  0.0000 -0.0001 444.0322 -191.2534 -1081.5434
Element 18
e_11      e_22      e_33     e_12      s_11       s_22       s_33      s_12      VM      e_1      e_2      e_3      s_1      s_2      s_3 
-0.0001  0.0000  0.0000 -0.0000 -1216.7178 -28.0903 -373.4424 -449.3042 1314.2416  0.0001  0.0000 -0.0001 122.6349 -373.4424 -1367.4430
Element 19
e_11      e_22      e_33     e_12      s_11       s_22       s_33      s_12      VM      e_1      e_2      e_3      s_1      s_2      s_3 
-0.0001  0.0000  0.0000 -0.0000 -1140.9712 57.2984 -325.1018 -318.6264 1195.1694  0.0001  0.0000 -0.0001 136.7543 -325.1018 -1220.4271
Element 20
e_11      e_22      e_33     e_12      s_11       s_22       s_33      s_12      VM      e_1      e_2      e_3      s_1      s_2      s_3 
-0.0002  0.0001  0.0000 -0.0000 -1908.5645 -40.7678 -584.7997 -487.7580 1866.0702  0.0001  0.0000 -0.0002 78.9344 -584.7997 -2028.2667
Element 21
e_11      e_22      e_33     e_12      s_11       s_22       s_33      s_12      VM      e_1      e_2      e_3      s_1      s_2      s_3 
-0.0000  0.0000  0.0000 -0.0000 -550.3136 -11.2570 -168.4712 -497.0382 985.7443  0.0000  0.0000 -0.0001 284.6282 -168.4712 -846.1988
Element 22
e_11      e_22      e_33     e_12      s_11       s_22       s_33      s_12      VM      e_1      e_2      e_3      s_1      s_2      s_3 
-0.0000  0.0000  0.0000 -0.0000 -551.7958 -25.1382 -173.0802 -717.0917 1328.1573  0.0000  0.0000 -0.0001 475.4457 -173.0802 -1052.3796
Element 23
e_11      e_22      e_33     e_12      s_11       s_22       s_33      s_12      VM      e_1      e_2      e_3      s_1      s_2      s_3 
-0.0001  0.0000  0.0000 -0.0000 -1069.9098 -2.1470 -321.6170 -570.2742 1369.9264  0.0001  0.0000 -0.0001 245.1515 -321.6170 -1317.2083
Element 24
e_11      e_22      e_33     e_12      s_11       s_22       s_33      s_12      VM      e_1      e_2      e_3      s_1      s_2      s_3 
 0.0001 -0.0000  0.0000 -0.0000 1437.2074 81.4400 455.5942 -308.5311 1325.2941  0.0001  0.0000 -0.0001 1504.1174 455.5942 14.5300
Element 25
e_11      e_22      e_33     e_12      s_11       s_22       s_33      s_12      VM      e_1      e_2      e_3      s_1      s_2      s_3 
 0.0001 -0.0001  0.0000 -0.0000 1496.0808 80.6561 473.0211 -141.3332 1289.1623  0.0001  0.0000 -0.0001 1510.0552 473.0211 66.6817
Element 26
e_11      e_22      e_33     e_12      s_11       s_22       s_33      s_12      VM      e_1      e_2      e_3      s_1      s_2      s_3 
 0.0000  0.0000  0.0000 -0.0000 63.9994 53.2383 35.1713 -591.6889 1025.1459  0.0000  0.0000 -0.0000 650.3323 35.1713 -533.0946
Element 27
e_11      e_22      e_33     e_12      s_11       s_22       s_33      s_12      VM      e_1      e_2      e_3      s_1      s_2      s_3 
 0.0001 -0.0000  0.0000 -0.0000 1010.7391 39.7969 315.1608 -257.9556 975.0974  0.0001  0.0000 -0.0000 1075.0164 315.1608 -24.4804
Element 28
e_11      e_22      e_33     e_12      s_11       s_22       s_33      s_12      VM      e_1      e_2      e_3      s_1      s_2      s_3 
-0.0001  0.0000  0.0000 -0.0000 -1085.7254 -21.1066 -332.0496 -131.3648 975.1067  0.0000  0.0000 -0.0001 -5.1369 -332.0496 -1101.6952
Element 29
e_11      e_22      e_33     e_12      s_11       s_22       s_33      s_12      VM      e_1      e_2      e_3      s_1      s_2      s_3 
-0.0001  0.0001  0.0000 -0.0000 -1506.8866 -6.5452 -454.0295 -375.6863 1484.3543  0.0001  0.0000 -0.0001 82.2694 -454.0295 -1595.7011
Element 30
e_11      e_22      e_33     e_12      s_11       s_22       s_33      s_12      VM      e_1      e_2      e_3      s_1      s_2      s_3 
-0.0000  0.0000  0.0000 -0.0000 -491.0192 -1.6403 -147.7978 -430.9692 864.0200  0.0000  0.0000 -0.0001 249.2582 -147.7978 -741.9177
Element 31
e_11      e_22      e_33     e_12      s_11       s_22       s_33      s_12      VM      e_1      e_2      e_3      s_1      s_2      s_3 
-0.0000  0.0000  0.0000 -0.0000 -505.6410 -39.3962 -163.5111 -677.4214 1245.6404  0.0000  0.0000 -0.0001 443.8932 -163.5111 -988.9303
Element 32
e_11      e_22      e_33     e_12      s_11       s_22       s_33      s_12      VM      e_1      e_2      e_3      s_1      s_2      s_3 
 0.0000 -0.0000  0.0000 -0.0000 27.7947 -25.9697  0.5475 -625.2993 1084.0506  0.0000  0.0000 -0.0000 626.7894  0.5475 -624.9644
Element 33
e_11      e_22      e_33     e_12      s_11       s_22       s_33      s_12      VM      e_1      e_2      e_3      s_1      s_2      s_3 
 0.0001 -0.0000  0.0000 -0.0000 622.1817 59.2362 204.4254 -490.8664 989.4966  0.0001  0.0000 -0.0000 906.5506 204.4254 -225.1327
Element 34
e_11      e_22      e_33     e_12      s_11       s_22       s_33      s_12      VM      e_1      e_2      e_3      s_1      s_2      s_3 
 0.0001 -0.0000  0.0000 -0.0000 738.2028 -2.1420 220.8182 -659.2160 1317.7449  0.0001  0.0000 -0.0000 1124.0683 220.8182 -388.0075
Element 35
e_11      e_22      e_33     e_12      s_11       s_22       s_33      s_12      VM      e_1      e_2      e_3      s_1      s_2      s_3 
 0.0000 -0.0000  0.0000 -0.0000 119.2205 -33.1350 25.8256 -709.5315 1236.1271  0.0000  0.0000 -0.0000 756.6518 25.8256 -670.5664
Element 36
e_11      e_22      e_33     e_12      s_11       s_22       s_33      s_12      VM      e_1      e_2      e_3      s_1      s_2      s_3 
 0.0000 -0.0000  0.0000 -0.0000 138.6626 24.9393 49.0806 -679.3947 1181.3135  0.0000  0.0000 -0.0000 763.5710 49.0806 -599.9691
Element 37
e_11      e_22      e_33     e_12      s_11       s_22       s_33      s_12      VM      e_1      e_2      e_3      s_1      s_2      s_3 
 0.0001 -0.0000  0.0000 -0.0000 629.6588 26.4727 196.8395 -684.7393 1302.5742  0.0001  0.0000 -0.0000 1076.2812 196.8395 -420.1497
Element 38
e_11      e_22      e_33     e_12      s_11       s_22       s_33      s_12      VM      e_1      e_2      e_3      s_1      s_2      s_3 
 0.0001 -0.0000  0.0000 -0.0000 724.3970 53.8301 233.4681 -266.2938 757.7649  0.0001  0.0000 -0.0000 817.2810 233.4681 -39.0539
Element 39
e_11      e_22      e_33     e_12      s_11       s_22       s_33      s_12      VM      e_1      e_2      e_3      s_1      s_2      s_3 
 0.0000 -0.0000  0.0000 -0.0000 115.8884 -111.1409  1.4243 -702.0504 1231.7800  0.0000  0.0000 -0.0000 713.5421  1.4243 -708.7945
Element 40
e_11      e_22      e_33     e_12      s_11       s_22       s_33      s_12      VM      e_1      e_2      e_3      s_1      s_2      s_3 
 0.0000 -0.0000  0.0000 -0.0000 150.9485 18.8194 50.9304 -613.6787 1069.6033  0.0000  0.0000 -0.0000 702.1085 50.9304 -532.3406
Element 41
e_11      e_22      e_33     e_12      s_11       s_22       s_33      s_12      VM      e_1      e_2      e_3      s_1      s_2      s_3 
 0.0001 -0.0000  0.0000 -0.0000 616.5392 31.7150 194.4763 -523.8018 1047.1049  0.0001  0.0000 -0.0000 924.0214 194.4763 -275.7671
Element 42
e_11      e_22      e_33     e_12      s_11       s_22       s_33      s_12      VM      e_1      e_2      e_3      s_1      s_2      s_3 
-0.0001  0.0000  0.0000 -0.0000 -874.5006 -21.4966 -268.7992 -656.8982 1368.3458  0.0000  0.0000 -0.0001 335.2123 -268.7992 -1231.2095
Element 43
e_11      e_22      e_33     e_12      s_11       s_22       s_33      s_12      VM      e_1      e_2      e_3      s_1      s_2      s_3 
-0.0000  0.0000  0.0000 -0.0000 -388.9222 -26.1070 -124.5088 -456.1024 854.2274  0.0000  0.0000 -0.0000 283.3399 -124.5088 -698.3691
Element 44
e_11      e_22      e_33     e_12      s_11       s_22       s_33      s_12      VM      e_1      e_2      e_3      s_1      s_2      s_3 
-0.0001  0.0000  0.0000 -0.0000 -905.8054 14.2495 -267.4668 -103.7971 836.0575  0.0000  0.0000 -0.0001 25.8142 -267.4668 -917.3700
Element 45
e_11      e_22      e_33     e_12      s_11       s_22       s_33      s_12      VM      e_1      e_2      e_3      s_1      s_2      s_3 
-0.0001  0.0000  0.0000 -0.0000 -1144.6965 -19.4432 -349.2419 -340.9467 1163.0086  0.0000  0.0000 -0.0001 75.8005 -349.2419 -1239.9402
Element 46
e_11      e_22      e_33     e_12      s_11       s_22       s_33      s_12      VM      e_1      e_2      e_3      s_1      s_2      s_3 
 0.0001 -0.0000  0.0000 -0.0000 570.3552 -57.2597 153.9286 -478.0771 995.8058  0.0001  0.0000 -0.0000 828.4156 153.9286 -315.3202
Element 47
e_11      e_22      e_33     e_12      s_11       s_22       s_33      s_12      VM      e_1      e_2      e_3      s_1      s_2      s_3 
 0.0000 -0.0000  0.0000 -0.0000 149.8485 -37.8643 33.5953 -628.1196 1100.2416  0.0000  0.0000 -0.0000 691.0852 33.5953 -579.1010
Element 48
e_11      e_22      e_33     e_12      s_11       s_22       s_33      s_12      VM      e_1      e_2      e_3      s_1      s_2      s_3 
 0.0000 -0.0000  0.0000 -0.0000 530.3124 40.3885 171.2103 -514.0406 992.8546  0.0001  0.0000 -0.0000 854.7748 171.2103 -284.0739
Element 49
e_11      e_22      e_33     e_12      s_11       s_22       s_33      s_12      VM      e_1      e_2      e_3      s_1      s_2      s_3 
 0.0000 -0.0000  0.0000 -0.0000 171.1410 24.0144 58.5466 -607.9781 1061.4472  0.0000  0.0000 -0.0000 709.9901 58.5466 -514.8346
Element 50
e_11      e_22      e_33     e_12      s_11       s_22       s_33      s_12      VM      e_1      e_2      e_3      s_1      s_2      s_3 
-0.0000  0.0000  0.0000 -0.0000 -109.4998 -9.9468 -35.8340 -685.0386 1189.8896  0.0000  0.0000 -0.0000 627.1214 -35.8340 -746.5679
Element 51
e_11      e_22      e_33     e_12      s_11       s_22       s_33      s_12      VM      e_1      e_2      e_3      s_1      s_2      s_3 
 0.0000 -0.0000  0.0000 -0.0000 170.6464 11.5765 54.6669 -623.6392 1089.5334  0.0000  0.0000 -0.0000 719.8018 54.6669 -537.5790
Element 52
e_11      e_22      e_33     e_12      s_11       s_22       s_33      s_12      VM      e_1      e_2      e_3      s_1      s_2      s_3 
-0.0000  0.0000  0.0000 -0.0000 -129.7563 11.0922 -35.5992 -547.7733 956.8745  0.0000  0.0000 -0.0000 492.9497 -35.5992 -611.6139
Element 53
e_11      e_22      e_33     e_12      s_11       s_22       s_33      s_12      VM      e_1      e_2      e_3      s_1      s_2      s_3 
-0.0000  0.0000  0.0000 -0.0000 -208.6502 -29.1774 -71.3483 -706.2992 1234.0973  0.0000  0.0000 -0.0001 593.0632 -71.3483 -830.8908
Element 54
e_11      e_22      e_33     e_12      s_11       s_22       s_33      s_12      VM      e_1      e_2      e_3      s_1      s_2      s_3 
-0.0000  0.0000  0.0000 -0.0000 -218.6019 31.1525 -56.2348 -540.1853 961.0353  0.0000  0.0000 -0.0000 460.7069 -56.2348 -648.1563
Element 55
e_11      e_22      e_33     e_12      s_11       s_22       s_33      s_12      VM      e_1      e_2      e_3      s_1      s_2      s_3 
-0.0000  0.0000  0.0000 -0.0000 -457.5564  1.1394 -136.9251 -604.7044 1123.8934  0.0000  0.0000 -0.0001 418.5278 -136.9251 -874.9448
Element 56
e_11      e_22      e_33     e_12      s_11       s_22       s_33      s_12      VM      e_1      e_2      e_3      s_1      s_2      s_3 
-0.0000  0.0000  0.0000 -0.0000 -494.4615 29.5842 -139.4632 -334.7222 742.1113  0.0000  0.0000 -0.0001 192.6436 -139.4632 -657.5209
Element 57
e_11      e_22      e_33     e_12      s_11       s_22       s_33      s_12      VM      e_1      e_2      e_3      s_1      s_2      s_3 
-0.0001  0.0000  0.0000 -0.0000 -596.8593 -19.3325 -184.8575 -637.3615 1218.2075  0.0000  0.0000 -0.0001 391.6283 -184.8575 -1007.8201
Element 58
e_11      e_22      e_33     e_12      s_11       s_22       s_33      s_12      VM      e_1      e_2      e_3      s_1      s_2      s_3 
 0.0000 -0.0000  0.0000 -0.0000 144.4716 -29.2116 34.5780 -578.6635 1013.7605  0.0000  0.0000 -0.0000 642.7735 34.5780 -527.5135
Element 59
e_11      e_22      e_33     e_12      s_11       s_22       s_33      s_12      VM      e_1      e_2      e_3      s_1      s_2      s_3 
 0.0000 -0.0000  0.0000 -0.0000 388.7799 25.0599 124.1520 -502.4047 929.1401  0.0001  0.0000 -0.0000 741.2266 124.1520 -327.3867
Element 60
e_11      e_22      e_33     e_12      s_11       s_22       s_33      s_12      VM      e_1      e_2      e_3      s_1      s_2      s_3 
 0.0000 -0.0000  0.0000 -0.0000 106.0373 -18.6200 26.2252 -561.6582 978.9484  0.0000  0.0000 -0.0000 608.8146 26.2252 -521.3973
Element 61
e_11      e_22      e_33     e_12      s_11       s_22       s_33      s_12      VM      e_1      e_2      e_3      s_1      s_2      s_3 
 0.0000 -0.0000  0.0000 -0.0000 132.7547  4.5525 41.1922 -631.5836 1099.8975  0.0000  0.0000 -0.0000 703.4818 41.1922 -566.1745
Element 62
e_11      e_22      e_33     e_12      s_11       s_22       s_33      s_12      VM      e_1      e_2      e_3      s_1      s_2      s_3 
 0.0000 -0.0000  0.0000 -0.0000 268.4171 68.0668 100.9452 -461.1532 820.1346  0.0000  0.0000 -0.0000 640.1501 100.9452 -303.6662
Element 63
e_11      e_22      e_33     e_12      s_11       s_22       s_33      s_12      VM      e_1      e_2      e_3      s_1      s_2      s_3 
-0.0000 -0.0000  0.0000 -0.0000 -39.4680 -26.9393 -19.9222 -499.8731 865.9755  0.0000  0.0000 -0.0000 466.7088 -19.9222 -533.1160
Element 64
e_11      e_22      e_33     e_12      s_11       s_22       s_33      s_12      VM      e_1      e_2      e_3      s_1      s_2      s_3 
 0.0000  0.0000  0.0000 -0.0000 158.4555 197.5242 106.7939 -318.5605 557.3652  0.0000  0.0000 -0.0000 497.1487 106.7939 -141.1690
Element 65
e_11      e_22      e_33     e_12      s_11       s_22       s_33      s_12      VM      e_1      e_2      e_3      s_1      s_2      s_3 
 0.0000 -0.0000  0.0000 -0.0000 201.6634 -9.7696 57.5681 -288.9275 534.2641  0.0000  0.0000 -0.0000 403.6075 57.5681 -211.7138
Element 66
e_11      e_22      e_33     e_12      s_11       s_22       s_33      s_12      VM      e_1      e_2      e_3      s_1      s_2      s_3 
 0.0000 -0.0000  0.0000 -0.0000 139.4398 21.2588 48.2096 -244.9254 437.5768  0.0000  0.0000 -0.0000 332.3020 48.2096 -171.6034
Element 67
e_11      e_22      e_33     e_12      s_11       s_22       s_33      s_12      VM      e_1      e_2      e_3      s_1      s_2      s_3 
 0.0000 -0.0000  0.0000 -0.0000 317.1775 -84.2450 69.8797 -374.4022 737.2628  0.0000  0.0000 -0.0000 541.2745 69.8797 -308.3420
Element 68
e_11      e_22      e_33     e_12      s_11       s_22       s_33      s_12      VM      e_1      e_2      e_3      s_1      s_2      s_3 
-0.0000  0.0000  0.0000 -0.0000 -75.0729 -23.7807 -29.6561 -680.6463 1179.9162  0.0000  0.0000 -0.0000 631.7025 -29.6561 -730.5561
Element 69
e_11      e_22      e_33     e_12      s_11       s_22       s_33      s_12      VM      e_1      e_2      e_3      s_1      s_2      s_3 
-0.0000  0.0000  0.0000 -0.0000 -72.5623 23.1926 -14.8109 -582.4898 1012.3524  0.0000  0.0000 -0.0000 559.7693 -14.8109 -609.1390
Element 70
e_11      e_22      e_33     e_12      s_11       s_22       s_33      s_12      VM      e_1      e_2      e_3      s_1      s_2      s_3 
 0.0001 -0.0000  0.0000 -0.0000 584.3733 -173.2654 123.3324 -729.7963 1426.5625  0.0001  0.0000 -0.0001 1027.8110 123.3324 -616.7032
Element 71
e_11      e_22      e_33     e_12      s_11       s_22       s_33      s_12      VM      e_1      e_2      e_3      s_1      s_2      s_3 
 0.0001 -0.0001  0.0000 -0.0000 1393.3041 -367.1554 307.8446 -563.4182 1821.7718  0.0001  0.0000 -0.0001 1558.1794 307.8446 -532.0306
Element 72
e_11      e_22      e_33     e_12      s_11       s_22       s_33      s_12      VM      e_1      e_2      e_3      s_1      s_2      s_3 
 0.0001 -0.0001  0.0000 -0.0000 1385.1922 -134.5177 375.2023 -403.4312 1510.9521  0.0001  0.0000 -0.0001 1485.6490 375.2023 -234.9745
Element 73
e_11      e_22      e_33     e_12      s_11       s_22       s_33      s_12      VM      e_1      e_2      e_3      s_1      s_2      s_3 
 0.0002 -0.0001  0.0000 -0.0000 2187.3798 -8.1848 653.7585 -337.3557 2036.3595  0.0002  0.0000 -0.0001 2238.0464 653.7585 -58.8514
Element 74
e_11      e_22      e_33     e_12      s_11       s_22       s_33      s_12      VM      e_1      e_2      e_3      s_1      s_2      s_3 
 0.0000 -0.0000  0.0000 -0.0000 430.2714 -166.3088 79.1888 -441.4001 924.2403  0.0001  0.0000 -0.0000 664.7205 79.1888 -400.7578
Element 75
e_11      e_22      e_33     e_12      s_11       s_22       s_33      s_12      VM      e_1      e_2      e_3      s_1      s_2      s_3 
-0.0000  0.0000  0.0000 -0.0000 -325.8928 -34.0643 -107.9871 -727.9269 1287.9008  0.0000  0.0000 -0.0001 562.4288 -107.9871 -922.3858
Element 76
e_11      e_22      e_33     e_12      s_11       s_22       s_33      s_12      VM      e_1      e_2      e_3      s_1      s_2      s_3 
-0.0000  0.0000  0.0000 -0.0000 -366.8961 -24.5901 -117.4459 -607.4283 1095.8639  0.0000  0.0000 -0.0001 435.3373 -117.4459 -826.8235
Element 77
e_11      e_22      e_33     e_12      s_11       s_22       s_33      s_12      VM      e_1      e_2      e_3      s_1      s_2      s_3 
-0.0000  0.0000  0.0000 -0.0000 -296.4263 68.4421 -68.3953 -352.0469 688.2854  0.0000  0.0000 -0.0000 282.5167 -68.3953 -510.5009
Element 78
e_11      e_22      e_33     e_12      s_11       s_22       s_33      s_12      VM      e_1      e_2      e_3      s_1      s_2      s_3 
-0.0000  0.0000  0.0000 -0.0000 -172.6804  2.7876 -50.9678 -611.5218 1070.5713  0.0000  0.0000 -0.0000 532.8368 -50.9678 -702.7296
Element 79
e_11      e_22      e_33     e_12      s_11       s_22       s_33      s_12      VM      e_1      e_2      e_3      s_1      s_2      s_3 
-0.0000 -0.0000  0.0000 -0.0000 -32.8247 -33.5541 -19.9136 -629.2736 1090.0149  0.0000  0.0000 -0.0000 596.0844 -19.9136 -662.4631
Element 80
e_11      e_22      e_33     e_12      s_11       s_22       s_33      s_12      VM      e_1      e_2      e_3      s_1      s_2      s_3 
-0.0000  0.0000  0.0000 -0.0000 -200.9986 -4.0917 -61.5271 -335.9856 607.7999  0.0000  0.0000 -0.0000 247.5683 -61.5271 -452.6586
Element 81
e_11      e_22      e_33     e_12      s_11       s_22       s_33      s_12      VM      e_1      e_2      e_3      s_1      s_2      s_3 
 0.0001 -0.0001  0.0000 -0.0000 1178.5770 -47.4250 339.3456 -473.5084 1360.5593  0.0001  0.0000 -0.0001 1340.1601 339.3456 -209.0081
Element 82
e_11      e_22      e_33     e_12      s_11       s_22       s_33      s_12      VM      e_1      e_2      e_3      s_1      s_2      s_3 
-0.0000  0.0000  0.0000 -0.0000 -5.7286 13.3456  2.2851 -677.0769 1172.8489  0.0000  0.0000 -0.0000 680.9526  2.2851 -673.3356
Element 83
e_11      e_22      e_33     e_12      s_11       s_22       s_33      s_12      VM      e_1      e_2      e_3      s_1      s_2      s_3 
 0.0000 -0.0000  0.0000 -0.0000 515.9043 10.1966 157.8303 -283.0532 665.7580  0.0001  0.0000 -0.0000 642.5951 157.8303 -116.4942
Element 84
e_11      e_22      e_33     e_12      s_11       s_22       s_33      s_12      VM      e_1      e_2      e_3      s_1      s_2      s_3 
 0.0001 -0.0001  0.0000 -0.0000 1054.3647 -100.3521 286.2038 -238.1628 1098.4527  0.0001  0.0000 -0.0001 1101.5575 286.2038 -147.5450
Element 85
e_11      e_22      e_33     e_12      s_11       s_22       s_33      s_12      VM      e_1      e_2      e_3      s_1      s_2      s_3 
 0.0001 -0.0001  0.0000 -0.0000 1431.8279 15.0868 434.0744 -245.4273 1330.3430  0.0001  0.0000 -0.0001 1473.1395 434.0744 -26.2249
Element 86
e_11      e_22      e_33     e_12      s_11       s_22       s_33      s_12      VM      e_1      e_2      e_3      s_1      s_2      s_3 
 0.0002 -0.0001  0.0000 -0.0000 1915.2983 10.3113 577.6829 -101.6386 1703.2445  0.0002  0.0000 -0.0001 1920.7058 577.6829  4.9038
Element 87
e_11      e_22      e_33     e_12      s_11       s_22       s_33      s_12      VM      e_1      e_2      e_3      s_1      s_2      s_3 
 0.0001 -0.0000  0.0000 -0.0000 833.4976 39.4439 261.8824 -219.8735 805.2360  0.0001  0.0000 -0.0000 890.3150 261.8824 -17.3736
Element 88
e_11      e_22      e_33     e_12      s_11       s_22       s_33      s_12      VM      e_1      e_2      e_3      s_1      s_2      s_3 
-0.0001  0.0000  0.0000 -0.0000 -756.2409 -35.4684 -237.5128 -135.9866 685.6996  0.0000  0.0000 -0.0001 -10.6656 -237.5128 -781.0437
Element 89
e_11      e_22      e_33     e_12      s_11       s_22       s_33      s_12      VM      e_1      e_2      e_3      s_1      s_2      s_3 
 0.0001 -0.0000  0.0000 -0.0000 1095.8573 106.3591 360.6649 -204.4473 957.8826  0.0001  0.0000 -0.0000 1136.4356 360.6649 65.7808
Element 90
e_11      e_22      e_33     e_12      s_11       s_22       s_33      s_12      VM      e_1      e_2      e_3      s_1      s_2      s_3 
-0.0001  0.0000  0.0000 -0.0000 -771.7626 -46.4965 -245.4777 -267.9865 797.9602  0.0000  0.0000 -0.0001 41.7801 -245.4777 -860.0392
Element 91
e_11      e_22      e_33     e_12      s_11       s_22       s_33      s_12      VM      e_1      e_2      e_3      s_1      s_2      s_3 
-0.0000  0.0000  0.0000 -0.0000 -474.0563 -4.9056 -143.6886 -306.5314 675.3795  0.0000  0.0000 -0.0000 146.5076 -143.6886 -625.4694
Element 92
e_11      e_22      e_33     e_12      s_11       s_22       s_33      s_12      VM      e_1      e_2      e_3      s_1      s_2      s_3 
-0.0000  0.0000  0.0000 -0.0000 -157.9577 -42.3201 -60.0833 -242.4219 433.5188  0.0000  0.0000 -0.0000 149.0826 -60.0833 -349.3604
Element 93
e_11      e_22      e_33     e_12      s_11       s_22       s_33      s_12      VM      e_1      e_2      e_3      s_1      s_2      s_3 
 0.0000 -0.0000  0.0000 -0.0000 -67.1084 -166.5598 -70.1005 -357.4995 626.9127  0.0000  0.0000 -0.0000 244.1070 -70.1005 -477.7753
Element 94
e_11      e_22      e_33     e_12      s_11       s_22       s_33      s_12      VM      e_1      e_2      e_3      s_1      s_2      s_3 
 0.0000 -0.0000  0.0000 -0.0000 -15.1244 -47.6867 -18.8433 -615.8748 1067.1730  0.0000  0.0000 -0.0000 584.6844 -18.8433 -647.4955
Element 95
e_11      e_22      e_33     e_12      s_11       s_22       s_33      s_12      VM      e_1      e_2      e_3      s_1      s_2      s_3 
 0.0000  0.0000  0.0000 -0.0000 60.4942 53.7501 34.2733 -626.8901 1086.0617  0.0000  0.0000 -0.0000 684.0213 34.2733 -569.7771
Element 96
e_11      e_22      e_33     e_12      s_11       s_22       s_33      s_12      VM      e_1      e_2      e_3      s_1      s_2      s_3 
 0.0002 -0.0001  0.0000 -0.0000 2378.0381 -1.5172 712.9563 -103.0474 2122.3768  0.0002  0.0000 -0.0001 2382.4923 712.9563 -5.9714
