********************************************************
*                      VEMLab 2.3                      *
*      http://camlab.cl/research/software/vemlab       *
*------------------------------------------------------*
*               Linear Elastostatics                   *
********************************************************

Mesh filename: element_aspect_ratio_test_q4.txt
Method: FEM2DQ4
Date: 5-7-2020
Time: 19:57 hrs

Nodal Displacements: 
 Node      Coords         u1       u2 
1 40.00000000 10.00000000 0.00924758 -0.05162122
2 40.00000000 9.50000000 0.00830280 -0.05161616
3 40.00000000 9.00000000 0.00736447 -0.05161049
4 40.00000000 8.50000000 0.00643176 -0.05160456
5 40.00000000 8.00000000 0.00550394 -0.05159872
6 40.00000000 7.50000000 0.00458027 -0.05159326
7 40.00000000 7.00000000 0.00366006 -0.05158843
8 40.00000000 6.50000000 0.00274263 -0.05158446
9 40.00000000 6.00000000 0.00182726 -0.05158150
10 40.00000000 5.50000000 0.00091328 -0.05157968
11 40.00000000 5.00000000 -0.00000000 -0.05157906
12 40.00000000 4.50000000 -0.00091328 -0.05157968
13 40.00000000 4.00000000 -0.00182726 -0.05158150
14 40.00000000 3.50000000 -0.00274263 -0.05158446
15 40.00000000 3.00000000 -0.00366006 -0.05158843
16 40.00000000 2.50000000 -0.00458027 -0.05159326
17 40.00000000 2.00000000 -0.00550394 -0.05159872
18 40.00000000 1.50000000 -0.00643176 -0.05160456
19 31.37159588 10.00000000 0.00882111 -0.03551275
20 31.37159588 9.50000000 0.00792025 -0.03550054
21 31.37159588 9.00000000 0.00702495 -0.03548977
22 31.37159588 8.50000000 0.00613483 -0.03548041
23 31.37159588 8.00000000 0.00524940 -0.03547242
24 31.37159588 7.50000000 0.00436807 -0.03546575
25 40.00000000 1.00000000 -0.00736447 -0.05161049
26 31.37159588 7.00000002 0.00349022 -0.03546035
27 31.37159588 6.50000000 0.00261518 -0.03545620
28 40.00000000 0.50000000 -0.00830280 -0.05161616
29 31.37159588 5.99999997 0.00174227 -0.03545326
30 31.37159588 5.49999999 0.00087078 -0.03545151
31 31.37159588 5.00000000 -0.00000000 -0.03545092
32 40.00000000 0.00000000 -0.00924758 -0.05162122
33 31.37159588 4.50000004 -0.00087078 -0.03545151
34 31.37159588 4.00000001 -0.00174227 -0.03545326
35 31.37159588 3.49999998 -0.00261518 -0.03545620
36 31.37159588 3.00000000 -0.00349022 -0.03546035
37 31.37159588 2.50000000 -0.00436807 -0.03546575
38 31.37159588 2.00000000 -0.00524940 -0.03547242
39 31.37159588 1.50000000 -0.00613483 -0.03548041
40 31.37159588 1.00000000 -0.00702495 -0.03548977
41 31.37159588 0.49999991 -0.00792025 -0.03550054
42 31.37159588 0.00000000 -0.00882111 -0.03551275
43 22.91237616 10.00000000 0.00760565 -0.02115028
44 22.91237615 9.50000000 0.00682489 -0.02112162
45 22.91237615 9.00000000 0.00605107 -0.02109630
46 22.91237615 8.50000000 0.00528305 -0.02107417
47 22.91237615 8.00000000 0.00451986 -0.02105512
48 22.91237615 7.50000000 0.00376068 -0.02103909
49 22.91237615 7.00000001 0.00300474 -0.02102603
50 22.91237615 6.50000001 0.00225135 -0.02101589
51 22.91237615 5.99999998 0.00149986 -0.02100866
52 22.91237615 5.49999998 0.00074962 -0.02100433
53 22.91237614 5.00000000 0.00000000 -0.02100289
54 22.91237614 4.50000002 -0.00074962 -0.02100433
55 22.91237614 4.00000002 -0.00149986 -0.02100866
56 22.91237614 3.49999999 -0.00225135 -0.02101589
57 22.91237614 2.99999999 -0.00300474 -0.02102603
58 22.91237614 2.50000000 -0.00376068 -0.02103909
59 22.91237614 2.00000000 -0.00451986 -0.02105512
60 22.91237614 1.50000000 -0.00528305 -0.02107417
61 22.91237614 1.00000000 -0.00605107 -0.02109630
62 22.91237614 0.49999995 -0.00682489 -0.02112162
63 22.91237616 0.00000000 -0.00760565 -0.02115028
64 14.77851104 10.00000000 0.00564381 -0.00990727
65 14.77851102 9.50000000 0.00506471 -0.00987019
66 14.77851102 9.00000001 0.00448907 -0.00983603
67 14.77851102 8.50000000 0.00391725 -0.00980516
68 14.77851102 8.00000000 0.00334928 -0.00977789
69 14.77851102 7.50000000 0.00278494 -0.00975444
70 14.77851103 7.00000000 0.00222382 -0.00973503
71 14.77851103 6.50000001 0.00166541 -0.00971979
72 14.77851103 5.99999999 0.00110908 -0.00970883
73 14.77851103 5.49999996 0.00055418 -0.00970222
74 14.77851103 5.00000000 -0.00000000 -0.00970002
75 14.77851103 4.50000001 -0.00055418 -0.00970222
76 14.77851104 4.00000003 -0.00110908 -0.00970883
77 14.77851104 3.50000000 -0.00166541 -0.00971979
78 14.77851104 2.99999998 -0.00222382 -0.00973503
79 14.77851104 2.50000000 -0.00278494 -0.00975444
80 14.77851104 2.00000000 -0.00334928 -0.00977789
81 14.77851104 1.50000000 -0.00391725 -0.00980516
82 14.77851104 1.00000000 -0.00448907 -0.00983603
83 14.77851104 0.49999998 -0.00506471 -0.00987019
84 14.77851104 0.00000000 -0.00564381 -0.00990727
85 7.10505339 10.00000000 0.00306236 -0.00285651
86 7.10505339 9.50000000 0.00271809 -0.00278513
87 7.10505339 9.00000001 0.00238748 -0.00272260
88 7.10505339 8.50000000 0.00206802 -0.00266850
89 7.10505339 8.00000000 0.00175761 -0.00262241
90 7.10505339 7.50000000 0.00145448 -0.00258400
91 7.10505339 7.00000000 0.00115710 -0.00255298
92 7.10505339 6.50000002 0.00086412 -0.00252910
93 7.10505339 5.99999999 0.00057435 -0.00251218
94 7.10505339 5.49999995 0.00028666 -0.00250208
95 7.10505339 5.00000000 0.00000000 -0.00249872
96 7.10505339 4.50000000 -0.00028666 -0.00250208
97 7.10505339 4.00000003 -0.00057435 -0.00251218
98 7.10505339 3.50000000 -0.00086412 -0.00252910
99 7.10505339 2.99999998 -0.00115710 -0.00255298
100 7.10505339 2.50000000 -0.00145448 -0.00258400
101 7.10505339 2.00000000 -0.00175761 -0.00262241
102 7.10505339 1.50000000 -0.00206802 -0.00266850
103 7.10505339 1.00000000 -0.00238748 -0.00272260
104 7.10505339 0.49999999 -0.00271809 -0.00278513
105 7.10505339 0.00000000 -0.00306236 -0.00285651
106 0.00000000 10.00000000 0.00000000 0.00000000
107 0.00000000 9.50000000 0.00000000 0.00000000
108 0.00000000 9.00000000 0.00000000 0.00000000
109 0.00000000 8.50000000 0.00000000 0.00000000
110 0.00000000 8.00000000 0.00000000 0.00000000
111 0.00000000 7.50000000 0.00000000 0.00000000
112 0.00000000 7.00000000 0.00000000 0.00000000
113 0.00000000 6.50000000 0.00000000 0.00000000
114 0.00000000 6.00000000 0.00000000 0.00000000
115 0.00000000 5.50000000 0.00000000 0.00000000
116 0.00000000 5.00000000 0.00000000 0.00000000
117 0.00000000 4.50000000 0.00000000 0.00000000
118 0.00000000 4.00000000 0.00000000 0.00000000
119 0.00000000 3.50000000 0.00000000 0.00000000
120 0.00000000 3.00000000 0.00000000 0.00000000
121 0.00000000 2.50000000 0.00000000 0.00000000
122 0.00000000 2.00000000 0.00000000 0.00000000
123 0.00000000 1.50000000 0.00000000 0.00000000
124 0.00000000 1.00000000 0.00000000 0.00000000
125 0.00000000 0.50000000 0.00000000 0.00000000
126 0.00000000 0.00000000 0.00000000 0.00000000
Strains, Stresses, Principal Strains and Principal Stresses: 
(at Gauss points --- 2x2 quadrature rule)

Element 1
GP#   e_11      e_22      e_33     e_12      s_11       s_22       s_33      s_12      VM      e_1      e_2      e_3      s_1      s_2      s_3 
1 -0.0004  0.0001  0.0001  0.0001 -89.3063 -3.1472  0.0000 11.5597 90.0296  0.0001  0.0001 -0.0004  0.0000 -1.6233 -90.8302
2 -0.0004  0.0000  0.0001 -0.0001 -95.0126 -22.1682  0.0000 -20.5485 93.1626  0.0001  0.0001 -0.0005  0.0000 -16.7715 -100.4092
3 -0.0004  0.0001  0.0001  0.0001 -82.8505 -1.2105  0.0000 12.0282 84.8493  0.0001  0.0001 -0.0004  0.5248  0.0000 -84.5857
4 -0.0004  0.0000  0.0001 -0.0001 -88.5567 -20.2315  0.0000 -20.0800 87.5762  0.0001  0.0001 -0.0004  0.0000 -14.7672 -94.0210
Element 2
GP#   e_11      e_22      e_33     e_12      s_11       s_22       s_33      s_12      VM      e_1      e_2      e_3      s_1      s_2      s_3 
1 -0.0003  0.0001  0.0001  0.0001 -70.0037 -2.3838  0.0000 11.2388 71.5420  0.0001  0.0001 -0.0003  0.0000 -0.5648 -71.8227
2 -0.0003  0.0001  0.0001 -0.0001 -67.2614  6.7571  0.0000 -10.6619 73.2480  0.0001  0.0001 -0.0003  8.2623  0.0000 -68.7666
3 -0.0003  0.0001  0.0001  0.0001 -65.9264 -1.1606  0.0000 11.0303 68.0891  0.0001  0.0001 -0.0003  0.6664  0.0000 -67.7535
4 -0.0003  0.0001  0.0001 -0.0001 -63.1842  7.9803  0.0000 -10.8703 70.1045  0.0001  0.0001 -0.0003  9.6037  0.0000 -64.8076
Element 3
GP#   e_11      e_22      e_33     e_12      s_11       s_22       s_33      s_12      VM      e_1      e_2      e_3      s_1      s_2      s_3 
1 -0.0002  0.0001  0.0001  0.0000 -50.2370 -2.2878  0.0000  7.5785 50.8562  0.0001  0.0001 -0.0002  0.0000 -1.1185 -51.4063
2 -0.0002  0.0001  0.0000 -0.0001 -49.5638 -0.0439  0.0000 -11.2301 53.2236  0.0001  0.0000 -0.0003  2.3838  0.0000 -51.9916
3 -0.0002  0.0001  0.0000  0.0000 -46.9336 -1.2967  0.0000  7.5302 48.1009  0.0001  0.0000 -0.0002  0.0000 -0.0863 -48.1440
4 -0.0002  0.0001  0.0000 -0.0001 -46.2604  0.9471  0.0000 -11.2784 50.6591  0.0001  0.0000 -0.0002  3.5033  0.0000 -48.8166
Element 4
GP#   e_11      e_22      e_33     e_12      s_11       s_22       s_33      s_12      VM      e_1      e_2      e_3      s_1      s_2      s_3 
1 -0.0001  0.0000  0.0000  0.0000 -30.2941 -2.5018  0.0000  4.2571 30.0428  0.0000  0.0000 -0.0001  0.0000 -1.8644 -30.9316
2 -0.0001  0.0001  0.0000 -0.0000 -28.9790  1.8821  0.0000 -6.9437 32.2879  0.0001  0.0000 -0.0001  3.3724  0.0000 -30.4693
3 -0.0001  0.0000  0.0000  0.0000 -28.4026 -1.9344  0.0000  4.1664 28.4180  0.0000  0.0000 -0.0001  0.0000 -1.2940 -29.0429
4 -0.0001  0.0001  0.0000 -0.0000 -27.0874  2.4495  0.0000 -7.0344 30.8954  0.0001  0.0000 -0.0001  4.0392  0.0000 -28.6771
Element 5
GP#   e_11      e_22      e_33     e_12      s_11       s_22       s_33      s_12      VM      e_1      e_2      e_3      s_1      s_2      s_3 
1 -0.0000  0.0000  0.0000  0.0000 -10.2482 -0.3152  0.0000  0.3159 10.1092  0.0000  0.0000 -0.0000  0.0000 -0.3052 -10.2583
2 -0.0000  0.0000  0.0000 -0.0000 -9.6770  1.5889  0.0000 -3.7800 12.4262  0.0000  0.0000 -0.0001  2.7397  0.0000 -10.8278
3 -0.0000  0.0000  0.0000  0.0000 -9.5701 -0.1118  0.0000  0.2772  9.5268  0.0000  0.0000 -0.0000  0.0000 -0.1036 -9.5782
4 -0.0000  0.0000  0.0000 -0.0000 -8.9989  1.7923  0.0000 -3.8187 12.0028  0.0000  0.0000 -0.0001  3.0069  0.0000 -10.2135
Element 6
GP#   e_11      e_22      e_33     e_12      s_11       s_22       s_33      s_12      VM      e_1      e_2      e_3      s_1      s_2      s_3 
1 -0.0004  0.0001  0.0001  0.0001 -79.1854 -3.0447  0.0000 10.6087 79.8507  0.0001  0.0001 -0.0004  0.0000 -1.5943 -80.6359
2 -0.0004  0.0000  0.0001 -0.0001 -84.1837 -19.7056  0.0000 -20.2249 83.9253  0.0001  0.0001 -0.0004  0.0000 -13.8868 -90.0025
3 -0.0003  0.0001  0.0001  0.0001 -72.9859 -1.1849  0.0000 11.0191 74.8741  0.0001  0.0001 -0.0004  0.4681  0.0000 -74.6389
4 -0.0003  0.0000  0.0001 -0.0001 -77.9842 -17.8458  0.0000 -19.8145 78.6521  0.0001  0.0001 -0.0004  0.0000 -11.9043 -83.9257
Element 7
GP#   e_11      e_22      e_33     e_12      s_11       s_22       s_33      s_12      VM      e_1      e_2      e_3      s_1      s_2      s_3 
1 -0.0003  0.0001  0.0001  0.0001 -63.4544 -2.1713  0.0000  9.9842 64.7492  0.0001  0.0001 -0.0003  0.0000 -0.5857 -65.0400
2 -0.0003  0.0001  0.0001 -0.0001 -61.1870  5.3868  0.0000 -12.8689 67.8181  0.0001  0.0001 -0.0003  7.7878  0.0000 -63.5880
3 -0.0003  0.0001  0.0001  0.0001 -59.1999 -0.8949  0.0000  9.8119 61.1659  0.0001  0.0001 -0.0003  0.7120  0.0000 -60.8068
4 -0.0003  0.0001  0.0001 -0.0001 -56.9324  6.6631  0.0000 -13.0412 64.6163  0.0001  0.0001 -0.0003  9.2336  0.0000 -59.5029
Element 8
GP#   e_11      e_22      e_33     e_12      s_11       s_22       s_33      s_12      VM      e_1      e_2      e_3      s_1      s_2      s_3 
1 -0.0002  0.0001  0.0000  0.0000 -44.9858 -2.0760  0.0000  6.4910 45.3987  0.0001  0.0000 -0.0002  0.0000 -1.1156 -45.9462
2 -0.0002  0.0001  0.0000 -0.0001 -44.2792  0.2793  0.0000 -11.9919 49.0358  0.0001  0.0000 -0.0002  3.3016  0.0000 -47.3016
3 -0.0002  0.0001  0.0000  0.0000 -41.7396 -1.1022  0.0000  6.4404 42.6830  0.0001  0.0000 -0.0002  0.0000 -0.1059 -42.7359
4 -0.0002  0.0001  0.0000 -0.0001 -41.0330  1.2531  0.0000 -12.0426 46.6023  0.0001  0.0000 -0.0002  4.4422  0.0000 -44.2221
Element 9
GP#   e_11      e_22      e_33     e_12      s_11       s_22       s_33      s_12      VM      e_1      e_2      e_3      s_1      s_2      s_3 
1 -0.0001  0.0000  0.0000  0.0000 -27.2643 -2.3645  0.0000  3.1580 26.7279  0.0000  0.0000 -0.0001  0.0000 -1.9702 -27.6585
2 -0.0001  0.0000  0.0000 -0.0001 -26.1009  1.5133  0.0000 -8.1718 30.3872  0.0001  0.0000 -0.0001  3.7504  0.0000 -28.3380
3 -0.0001  0.0000  0.0000  0.0000 -25.3509 -1.7905  0.0000  3.0777 25.0779  0.0000  0.0000 -0.0001  0.0000 -1.3951 -25.7463
4 -0.0001  0.0000  0.0000 -0.0001 -24.1876  2.0873  0.0000 -8.2521 29.0546  0.0001  0.0000 -0.0001  4.4640  0.0000 -26.5643
Element 10
GP#   e_11      e_22      e_33     e_12      s_11       s_22       s_33      s_12      VM      e_1      e_2      e_3      s_1      s_2      s_3 
1 -0.0000  0.0000  0.0000 -0.0000 -9.0536  0.1190  0.0000 -0.7581  9.2079  0.0000  0.0000 -0.0000  0.1813  0.0000 -9.1159
2 -0.0000  0.0000  0.0000 -0.0000 -8.6463  1.4770  0.0000 -4.7717 12.5705  0.0000  0.0000 -0.0001  3.3716  0.0000 -10.5409
3 -0.0000  0.0000  0.0000 -0.0000 -8.3891  0.3184  0.0000 -0.7856  8.6603  0.0000  0.0000 -0.0000  0.3887  0.0000 -8.4594
4 -0.0000  0.0000  0.0000 -0.0000 -7.9818  1.6763  0.0000 -4.7992 12.2064  0.0000  0.0000 -0.0001  3.6555  0.0000 -9.9610
Element 11
GP#   e_11      e_22      e_33     e_12      s_11       s_22       s_33      s_12      VM      e_1      e_2      e_3      s_1      s_2      s_3 
1 -0.0003  0.0001  0.0001  0.0001 -69.4432 -2.9102  0.0000  9.8795 70.1537  0.0001  0.0001 -0.0003  0.0000 -1.4742 -70.8792
2 -0.0003  0.0000  0.0001 -0.0001 -73.7686 -17.3282  0.0000 -19.9148 75.1903  0.0001  0.0001 -0.0004  0.0000 -11.0089 -80.0879
3 -0.0003  0.0001  0.0001  0.0001 -63.4527 -1.1130  0.0000 10.2346 65.3536  0.0001  0.0001 -0.0003  0.5242  0.0000 -65.0899
4 -0.0003  0.0000  0.0001 -0.0001 -67.7780 -15.5310  0.0000 -19.5596 70.2150  0.0001  0.0001 -0.0003  0.0000 -9.0199 -74.2891
Element 12
GP#   e_11      e_22      e_33     e_12      s_11       s_22       s_33      s_12      VM      e_1      e_2      e_3      s_1      s_2      s_3 
1 -0.0003  0.0001  0.0001  0.0001 -56.6445 -1.9655  0.0000  8.8296 57.7495  0.0001  0.0001 -0.0003  0.0000 -0.5751 -58.0349
2 -0.0003  0.0001  0.0001 -0.0001 -54.7868  4.2266  0.0000 -14.7063 62.4488  0.0001  0.0001 -0.0003  7.6884  0.0000 -58.2486
3 -0.0002  0.0001  0.0001  0.0001 -52.2628 -0.6510  0.0000  8.6883 54.0764  0.0001  0.0001 -0.0003  0.7724  0.0000 -53.6861
4 -0.0002  0.0001  0.0000 -0.0001 -50.4051  5.5411  0.0000 -14.8475 59.2624  0.0001  0.0000 -0.0003  9.2373  0.0000 -54.1013
Element 13
GP#   e_11      e_22      e_33     e_12      s_11       s_22       s_33      s_12      VM      e_1      e_2      e_3      s_1      s_2      s_3 
1 -0.0002  0.0000  0.0000  0.0000 -39.8196 -1.8748  0.0000  5.5345 40.0794  0.0001  0.0000 -0.0002  0.0000 -1.0840 -40.6104
2 -0.0002  0.0001  0.0000 -0.0001 -39.1211  0.4535  0.0000 -12.7645 45.1354  0.0001  0.0000 -0.0002  4.2134  0.0000 -42.8810
3 -0.0002  0.0000  0.0000  0.0000 -36.6057 -0.9106  0.0000  5.4844 37.3860  0.0001  0.0000 -0.0002  0.0000 -0.0870 -37.4294
4 -0.0002  0.0001  0.0000 -0.0001 -35.9073  1.4177  0.0000 -12.8145 42.8355  0.0001  0.0000 -0.0002  5.3937  0.0000 -39.8833
Element 14
GP#   e_11      e_22      e_33     e_12      s_11       s_22       s_33      s_12      VM      e_1      e_2      e_3      s_1      s_2      s_3 
1 -0.0001  0.0000  0.0000  0.0000 -24.1937 -2.1925  0.0000  2.1645 23.4766  0.0000  0.0000 -0.0001  0.0000 -1.9816 -24.4046
2 -0.0001  0.0000  0.0000 -0.0001 -23.1728  1.2103  0.0000 -9.2226 28.6646  0.0001  0.0000 -0.0001  4.3057  0.0000 -26.2682
3 -0.0001  0.0000  0.0000  0.0000 -22.2707 -1.6156  0.0000  2.0941 21.8121  0.0000  0.0000 -0.0001  0.0000 -1.4055 -22.4808
4 -0.0001  0.0000  0.0000 -0.0001 -21.2498  1.7872  0.0000 -9.2930 27.4191  0.0001  0.0000 -0.0001  5.0685  0.0000 -24.5312
Element 15
GP#   e_11      e_22      e_33     e_12      s_11       s_22       s_33      s_12      VM      e_1      e_2      e_3      s_1      s_2      s_3 
1 -0.0000  0.0000  0.0000 -0.0000 -7.9189  0.4178  0.0000 -1.6967  8.6504  0.0000  0.0000 -0.0000  0.7500  0.0000 -8.2510
2 -0.0000  0.0000  0.0000 -0.0000 -7.6441  1.3338  0.0000 -5.6686 12.9153  0.0000  0.0000 -0.0001  4.0756  0.0000 -10.3859
3 -0.0000  0.0000  0.0000 -0.0000 -7.2613  0.6151  0.0000 -1.7153  8.1485  0.0000  0.0000 -0.0000  0.9725  0.0000 -7.6187
4 -0.0000  0.0000  0.0000 -0.0000 -6.9865  1.5311  0.0000 -5.6871 12.6049  0.0000  0.0000 -0.0001  4.3773  0.0000 -9.8327
Element 16
GP#   e_11      e_22      e_33     e_12      s_11       s_22       s_33      s_12      VM      e_1      e_2      e_3      s_1      s_2      s_3 
1 -0.0003  0.0001  0.0001  0.0001 -60.0055 -2.7363  0.0000  9.3224 60.8660  0.0001  0.0001 -0.0003  0.0000 -1.2570 -61.4848
2 -0.0003  0.0000  0.0001 -0.0001 -63.6895 -15.0165  0.0000 -19.6278 66.9419  0.0001  0.0001 -0.0003  0.0000 -8.0878 -70.6183
3 -0.0003  0.0001  0.0001  0.0001 -54.1846 -0.9901  0.0000  9.6249 56.2247  0.0001  0.0001 -0.0003  0.6979  0.0000 -55.8725
4 -0.0003  0.0000  0.0001 -0.0001 -57.8687 -13.2703  0.0000 -19.3254 62.2684  0.0001  0.0001 -0.0003  0.0000 -6.0614 -65.0775
Element 17
GP#   e_11      e_22      e_33     e_12      s_11       s_22       s_33      s_12      VM      e_1      e_2      e_3      s_1      s_2      s_3 
1 -0.0002  0.0001  0.0001  0.0000 -49.6493 -1.7693  0.0000  7.7957 50.6226  0.0001  0.0001 -0.0002  0.0000 -0.5320 -50.8866
2 -0.0002  0.0001  0.0000 -0.0001 -48.1457  3.2426  0.0000 -16.2253 57.2225  0.0001  0.0000 -0.0003  7.9367  0.0000 -52.8398
3 -0.0002  0.0001  0.0000  0.0000 -45.1773 -0.4277  0.0000  7.6814 46.8920  0.0001  0.0000 -0.0002  0.8541  0.0000 -46.4591
4 -0.0002  0.0001  0.0000 -0.0001 -43.6737  4.5842  0.0000 -16.3396 54.1254  0.0001  0.0000 -0.0002  9.5960  0.0000 -48.6856
Element 18
GP#   e_11      e_22      e_33     e_12      s_11       s_22       s_33      s_12      VM      e_1      e_2      e_3      s_1      s_2      s_3 
1 -0.0002  0.0000  0.0000  0.0000 -34.7011 -1.6805  0.0000  4.7014 34.8566  0.0000  0.0000 -0.0002  0.0000 -1.0242 -35.3574
2 -0.0002  0.0001  0.0000 -0.0001 -34.0432  0.5126  0.0000 -13.5054 41.5192  0.0001  0.0000 -0.0002  5.1647  0.0000 -38.6952
3 -0.0001  0.0000  0.0000  0.0000 -31.5034 -0.7212  0.0000  4.6542 32.1753  0.0000  0.0000 -0.0002  0.0000 -0.0329 -32.1917
4 -0.0001  0.0001  0.0000 -0.0001 -30.8455  1.4719  0.0000 -13.5526 39.3704  0.0001  0.0000 -0.0002  6.4030  0.0000 -35.7765
Element 19
GP#   e_11      e_22      e_33     e_12      s_11       s_22       s_33      s_12      VM      e_1      e_2      e_3      s_1      s_2      s_3 
1 -0.0001  0.0000  0.0000  0.0000 -21.1017 -1.9917  0.0000  1.2842 20.3019  0.0000  0.0000 -0.0001  0.0000 -1.9058 -21.1876
2 -0.0001  0.0000  0.0000 -0.0001 -20.2182  0.9530  0.0000 -10.1170 27.1295  0.0001  0.0000 -0.0001  5.0101  0.0000 -24.2753
3 -0.0001  0.0000  0.0000  0.0000 -19.1762 -1.4141  0.0000  1.2233 18.6306  0.0000  0.0000 -0.0001  0.0000 -1.3302 -19.2601
4 -0.0001  0.0000  0.0000 -0.0001 -18.2928  1.5306  0.0000 -10.1779 25.9950  0.0001  0.0000 -0.0001  5.8256  0.0000 -22.5878
Element 20
GP#   e_11      e_22      e_33     e_12      s_11       s_22       s_33      s_12      VM      e_1      e_2      e_3      s_1      s_2      s_3 
1 -0.0000  0.0000  0.0000 -0.0000 -6.8300  0.5959  0.0000 -2.5077  8.3630  0.0000  0.0000 -0.0000  1.3634  0.0000 -7.5975
2 -0.0000  0.0000  0.0000 -0.0000 -6.6579  1.1695  0.0000 -6.4614 13.3691  0.0000  0.0000 -0.0001  4.8101  0.0000 -10.2985
3 -0.0000  0.0000  0.0000 -0.0000 -6.1754  0.7922  0.0000 -2.5193  7.9181  0.0000  0.0000 -0.0000  1.6077  0.0000 -6.9909
4 -0.0000  0.0000  0.0000 -0.0000 -6.0033  1.3659  0.0000 -6.4731 13.1075  0.0000  0.0000 -0.0001  5.1295  0.0000 -9.7670
Element 21
GP#   e_11      e_22      e_33     e_12      s_11       s_22       s_33      s_12      VM      e_1      e_2      e_3      s_1      s_2      s_3 
1 -0.0002  0.0001  0.0001  0.0001 -50.8118 -2.5213  0.0000  8.9007 51.9398  0.0001  0.0001 -0.0002  0.0000 -0.9330 -52.4001
2 -0.0002  0.0000  0.0001 -0.0001 -53.8821 -12.7557  0.0000 -19.3708 59.1977  0.0001  0.0001 -0.0003  0.0000 -5.0687 -61.5691
3 -0.0002  0.0001  0.0000  0.0001 -45.1274 -0.8160  0.0000  9.1528 47.4515  0.0001  0.0000 -0.0002  1.0001  0.0000 -46.9435
4 -0.0002  0.0000  0.0001 -0.0001 -48.1977 -11.0504  0.0000 -19.1188 54.8553  0.0001  0.0001 -0.0003  0.0000 -2.9687 -56.2794
Element 22
GP#   e_11      e_22      e_33     e_12      s_11       s_22       s_33      s_12      VM      e_1      e_2      e_3      s_1      s_2      s_3 
1 -0.0002  0.0001  0.0000  0.0000 -42.5238 -1.5836  0.0000  6.8960 43.4293  0.0001  0.0000 -0.0002  0.0000 -0.4533 -43.6542
2 -0.0002  0.0001  0.0000 -0.0001 -41.3274  2.4045  0.0000 -17.4656 52.2327  0.0001  0.0000 -0.0002  8.5237  0.0000 -47.4466
3 -0.0002  0.0001  0.0000  0.0000 -37.9884 -0.2230  0.0000  6.8050 39.6689  0.0001  0.0000 -0.0002  0.9658  0.0000 -39.1772
4 -0.0002  0.0001  0.0000 -0.0001 -36.7920  3.7652  0.0000 -17.5566 49.3057  0.0001  0.0000 -0.0002 10.3092  0.0000 -43.3360
Element 23
GP#   e_11      e_22      e_33     e_12      s_11       s_22       s_33      s_12      VM      e_1      e_2      e_3      s_1      s_2      s_3 
1 -0.0001  0.0000  0.0000  0.0000 -29.6061 -1.4909  0.0000  3.9880 29.7039  0.0000  0.0000 -0.0001  0.0000 -0.9361 -30.1609
2 -0.0001  0.0000  0.0000 -0.0001 -29.0139  0.4834  0.0000 -14.1839 38.2048  0.0001  0.0000 -0.0002  6.1970  0.0000 -34.7275
3 -0.0001  0.0000  0.0000  0.0000 -26.4146 -0.5334  0.0000  3.9455 27.0301  0.0000  0.0000 -0.0001  0.0547  0.0000 -27.0027
4 -0.0001  0.0000  0.0000 -0.0001 -25.8223  1.4408  0.0000 -14.2263 36.2386  0.0001  0.0000 -0.0002  7.5123  0.0000 -31.8937
Element 24
GP#   e_11      e_22      e_33     e_12      s_11       s_22       s_33      s_12      VM      e_1      e_2      e_3      s_1      s_2      s_3 
1 -0.0001  0.0000  0.0000  0.0000 -18.0000 -1.7670  0.0000  0.5224 17.2086  0.0000  0.0000 -0.0001  0.0000 -1.7502 -18.0168
2 -0.0001  0.0000  0.0000 -0.0001 -17.2518  0.7271  0.0000 -10.8689 25.7894  0.0001  0.0000 -0.0001  5.8424  0.0000 -22.3671
3 -0.0001  0.0000  0.0000  0.0000 -16.0763 -1.1899  0.0000  0.4708 15.5370  0.0000  0.0000 -0.0001  0.0000 -1.1750 -16.0912
4 -0.0001  0.0000  0.0000 -0.0001 -15.3281  1.3042  0.0000 -10.9205 24.7874  0.0001  0.0000 -0.0001  6.7145  0.0000 -20.7384
Element 25
GP#   e_11      e_22      e_33     e_12      s_11       s_22       s_33      s_12      VM      e_1      e_2      e_3      s_1      s_2      s_3 
1 -0.0000  0.0000  0.0000 -0.0000 -5.7768  0.6685  0.0000 -3.1961  8.2659  0.0000  0.0000 -0.0000  1.9846  0.0000 -7.0929
2 -0.0000  0.0000  0.0000 -0.0000 -5.6800  0.9908  0.0000 -7.1449 13.8571  0.0000  0.0000 -0.0001  5.5405  0.0000 -10.2297
3 -0.0000  0.0000  0.0000 -0.0000 -5.1230  0.8646  0.0000 -3.2027  7.8862  0.0000  0.0000 -0.0000  2.2548  0.0000 -6.5132
4 -0.0000  0.0000  0.0000 -0.0000 -5.0263  1.1870  0.0000 -7.1514 13.6406  0.0000  0.0000 -0.0001  5.8774  0.0000 -9.7167
Element 26
GP#   e_11      e_22      e_33     e_12      s_11       s_22       s_33      s_12      VM      e_1      e_2      e_3      s_1      s_2      s_3 
1 -0.0002  0.0000  0.0000  0.0001 -41.8119 -2.2672  0.0000  8.5868 43.3564  0.0001  0.0000 -0.0002  0.0000 -0.4831 -43.5960
2 -0.0002  0.0000  0.0001 -0.0001 -44.2920 -10.5340  0.0000 -19.1483 52.0206  0.0001  0.0001 -0.0002  0.0000 -1.8874 -52.9386
3 -0.0002  0.0000  0.0000  0.0001 -36.2354 -0.5943  0.0000  8.7904 39.0338  0.0001  0.0000 -0.0002  1.4559  0.0000 -38.2855
4 -0.0002  0.0000  0.0000 -0.0001 -38.7154 -8.8611  0.0000 -18.9447 48.0733  0.0001  0.0000 -0.0002  0.3307  0.0000 -47.9072
Element 27
GP#   e_11      e_22      e_33     e_12      s_11       s_22       s_33      s_12      VM      e_1      e_2      e_3      s_1      s_2      s_3 
1 -0.0002  0.0000  0.0000  0.0000 -35.3080 -1.4079  0.0000  6.1386 36.2211  0.0001  0.0000 -0.0002  0.0000 -0.3306 -36.3853
2 -0.0002  0.0001  0.0000 -0.0001 -34.3799  1.6855  0.0000 -18.4586 47.5912  0.0001  0.0000 -0.0002  9.4578  0.0000 -42.1522
3 -0.0001  0.0000  0.0000  0.0000 -30.7287 -0.0342  0.0000  6.0680 32.4602  0.0001  0.0000 -0.0002  1.1219  0.0000 -31.8847
4 -0.0001  0.0001  0.0000 -0.0001 -29.8007  3.0593  0.0000 -18.5291 44.9288  0.0001  0.0000 -0.0002 11.3937  0.0000 -38.1350
Element 28
GP#   e_11      e_22      e_33     e_12      s_11       s_22       s_33      s_12      VM      e_1      e_2      e_3      s_1      s_2      s_3 
1 -0.0001  0.0000  0.0000  0.0000 -24.5198 -1.3043  0.0000  3.3926 24.6063  0.0000  0.0000 -0.0001  0.0000 -0.8187 -25.0055
2 -0.0001  0.0000  0.0000 -0.0001 -24.0125  0.3870  0.0000 -14.7771 35.2297  0.0001  0.0000 -0.0002  7.3496  0.0000 -30.9751
3 -0.0001  0.0000  0.0000  0.0000 -21.3287 -0.3469  0.0000  3.3562 21.9414  0.0000  0.0000 -0.0001  0.1768  0.0000 -21.8524
4 -0.0001  0.0000  0.0000 -0.0001 -20.8213  1.3443  0.0000 -14.8135 33.4909  0.0001  0.0000 -0.0001  8.7620  0.0000 -28.2390
Element 29
GP#   e_11      e_22      e_33     e_12      s_11       s_22       s_33      s_12      VM      e_1      e_2      e_3      s_1      s_2      s_3 
1 -0.0001  0.0000  0.0000 -0.0000 -14.8959 -1.5229  0.0000 -0.1174 14.1973  0.0000  0.0000 -0.0001  0.0000 -1.5219 -14.8969
2 -0.0001  0.0000  0.0000 -0.0001 -14.2823  0.5224  0.0000 -11.4875 24.6497  0.0001  0.0000 -0.0001  6.7860  0.0000 -20.5459
3 -0.0001  0.0000  0.0000 -0.0000 -12.9757 -0.9469  0.0000 -0.1597 12.5322  0.0000  0.0000 -0.0001  0.0000 -0.9448 -12.9778
4 -0.0001  0.0000  0.0000 -0.0001 -12.3621  1.0984  0.0000 -11.5298 23.7995  0.0001  0.0000 -0.0001  7.7186  0.0000 -18.9823
Element 30
GP#   e_11      e_22      e_33     e_12      s_11       s_22       s_33      s_12      VM      e_1      e_2      e_3      s_1      s_2      s_3 
1 -0.0000  0.0000  0.0000 -0.0000 -4.7513  0.6515  0.0000 -3.7656  8.2846  0.0000  0.0000 -0.0000  2.5845  0.0000 -6.6843
2 -0.0000  0.0000  0.0000 -0.0000 -4.7060  0.8025  0.0000 -7.7159 14.3239  0.0000  0.0000 -0.0001  6.2410  0.0000 -10.1445
3 -0.0000  0.0000  0.0000 -0.0000 -4.0973  0.8477  0.0000 -3.7687  7.9742  0.0000  0.0000 -0.0000  2.8826  0.0000 -6.1321
4 -0.0000  0.0000  0.0000 -0.0000 -4.0520  0.9987  0.0000 -7.7190 14.1496  0.0000  0.0000 -0.0001  6.5950  0.0000 -9.6482
Element 31
GP#   e_11      e_22      e_33     e_12      s_11       s_22       s_33      s_12      VM      e_1      e_2      e_3      s_1      s_2      s_3 
1 -0.0002  0.0000  0.0000  0.0001 -32.9634 -1.9789  0.0000  8.3606 35.1422  0.0001  0.0000 -0.0002  0.1331  0.0000 -35.0754
2 -0.0002  0.0000  0.0000 -0.0001 -34.8724 -8.3422  0.0000 -18.9633 45.5366  0.0001  0.0000 -0.0002  1.5351  0.0000 -44.7497
3 -0.0001  0.0000  0.0000  0.0001 -27.4695 -0.3307  0.0000  8.5174 31.0360  0.0001  0.0000 -0.0001  2.1209  0.0000 -29.9212
4 -0.0001  0.0000  0.0000 -0.0001 -29.3785 -6.6940  0.0000 -18.8066 42.0988  0.0001  0.0000 -0.0002  3.9258  0.0000 -39.9984
Element 32
GP#   e_11      e_22      e_33     e_12      s_11       s_22       s_33      s_12      VM      e_1      e_2      e_3      s_1      s_2      s_3 
1 -0.0001  0.0000  0.0000  0.0000 -28.0303 -1.2409  0.0000  5.5282 29.0541  0.0000  0.0000 -0.0001  0.0000 -0.1449 -29.1263
2 -0.0001  0.0000  0.0000 -0.0001 -27.3397  1.0610  0.0000 -19.2281 43.4368  0.0001  0.0000 -0.0002 10.7640  0.0000 -37.0427
3 -0.0001  0.0000  0.0000  0.0000 -23.4214  0.1418  0.0000  5.4757 25.3348  0.0000  0.0000 -0.0001  1.3521  0.0000 -24.6317
4 -0.0001  0.0000  0.0000 -0.0001 -22.7308  2.4437  0.0000 -19.2806 41.1513  0.0001  0.0000 -0.0002 12.8821  0.0000 -33.1692
Element 33
GP#   e_11      e_22      e_33     e_12      s_11       s_22       s_33      s_12      VM      e_1      e_2      e_3      s_1      s_2      s_3 
1 -0.0001  0.0000  0.0000  0.0000 -19.4338 -1.1197  0.0000  2.9147 19.5615  0.0000  0.0000 -0.0001  0.0000 -0.6670 -19.8865
2 -0.0001  0.0000  0.0000 -0.0001 -19.0257  0.2406  0.0000 -15.2689 32.6502  0.0001  0.0000 -0.0001  8.6612  0.0000 -27.4463
3 -0.0001  0.0000  0.0000  0.0000 -16.2402 -0.1616  0.0000  2.8854 16.9151  0.0000  0.0000 -0.0001  0.3405  0.0000 -16.7423
4 -0.0001  0.0000  0.0000 -0.0001 -15.8321  1.1987  0.0000 -15.2982 31.1957  0.0001  0.0000 -0.0001 10.1918  0.0000 -24.8251
Element 34
GP#   e_11      e_22      e_33     e_12      s_11       s_22       s_33      s_12      VM      e_1      e_2      e_3      s_1      s_2      s_3 
1 -0.0001  0.0000  0.0000 -0.0000 -11.7929 -1.2634  0.0000 -0.6326 11.2681  0.0000  0.0000 -0.0001  0.0000 -1.2255 -11.8308
2 -0.0001  0.0000  0.0000 -0.0001 -11.3144  0.3317  0.0000 -11.9786 23.7137  0.0001  0.0000 -0.0001  7.8277  0.0000 -18.8103
3 -0.0000  0.0000  0.0000 -0.0000 -9.8768 -0.6886  0.0000 -0.6656  9.6205  0.0000  0.0000 -0.0000  0.0000 -0.6406 -9.9248
4 -0.0000  0.0000  0.0000 -0.0001 -9.3983  0.9065  0.0000 -12.0116 23.0327  0.0001  0.0000 -0.0001  8.8242  0.0000 -17.3159
Element 35
GP#   e_11      e_22      e_33     e_12      s_11       s_22       s_33      s_12      VM      e_1      e_2      e_3      s_1      s_2      s_3 
1 -0.0000  0.0000  0.0000 -0.0000 -3.7473  0.5611  0.0000 -4.2186  8.3577  0.0000  0.0000 -0.0000  3.1437  0.0000 -6.3299
2 -0.0000  0.0000  0.0000 -0.0001 -3.7334  0.6076  0.0000 -8.1731 14.7301  0.0000  0.0000 -0.0001  6.8936  0.0000 -10.0193
3 -0.0000  0.0000  0.0000 -0.0000 -3.0926  0.7575  0.0000 -4.2196  8.1176  0.0000  0.0000 -0.0000  3.4704  0.0000 -5.8055
4 -0.0000  0.0000  0.0000 -0.0001 -3.0786  0.8041  0.0000 -8.1741 14.5961  0.0000  0.0000 -0.0001  7.2642  0.0000 -9.5387
Element 36
GP#   e_11      e_22      e_33     e_12      s_11       s_22       s_33      s_12      VM      e_1      e_2      e_3      s_1      s_2      s_3 
1 -0.0001  0.0000  0.0000  0.0001 -24.2293 -1.6629  0.0000  8.2077 27.4160  0.0000  0.0000 -0.0001  1.0066  0.0000 -26.8988
2 -0.0001  0.0000  0.0000 -0.0001 -25.5822 -6.1726  0.0000 -18.8178 39.9621  0.0001  0.0000 -0.0002  5.2955  0.0000 -37.0503
3 -0.0001  0.0000  0.0000  0.0001 -18.7955 -0.0328  0.0000  8.3188 23.6699  0.0000  0.0000 -0.0001  3.1243  0.0000 -21.9526
4 -0.0001  0.0000  0.0000 -0.0001 -20.1484 -4.5424  0.0000 -18.7067 37.2141  0.0001  0.0000 -0.0002  7.9235  0.0000 -32.6143
Element 37
GP#   e_11      e_22      e_33     e_12      s_11       s_22       s_33      s_12      VM      e_1      e_2      e_3      s_1      s_2      s_3 
1 -0.0001  0.0000  0.0000  0.0000 -20.7114 -1.0807  0.0000  5.0676 22.0179  0.0000  0.0000 -0.0001  0.1502  0.0000 -21.9424
2 -0.0001  0.0000  0.0000 -0.0001 -20.2347  0.5083  0.0000 -19.7921 39.9396  0.0001  0.0000 -0.0002 12.4817  0.0000 -32.2082
3 -0.0001  0.0000  0.0000  0.0000 -16.0833  0.3077  0.0000  5.0313 18.4298  0.0000  0.0000 -0.0001  1.7289  0.0000 -17.5045
4 -0.0001  0.0000  0.0000 -0.0001 -15.6066  1.8967  0.0000 -19.8284 38.1610  0.0001  0.0000 -0.0002 14.8189  0.0000 -28.5288
Element 38
GP#   e_11      e_22      e_33     e_12      s_11       s_22       s_33      s_12      VM      e_1      e_2      e_3      s_1      s_2      s_3 
1 -0.0001  0.0000  0.0000  0.0000 -14.3440 -0.9364  0.0000  2.5545 14.5867  0.0000  0.0000 -0.0001  0.0000 -0.4662 -14.8142
2 -0.0001  0.0000  0.0000 -0.0001 -14.0456  0.0584  0.0000 -15.6478 30.5395  0.0001  0.0000 -0.0001 10.1698  0.0000 -24.1570
3 -0.0001  0.0000  0.0000  0.0000 -11.1471  0.0227  0.0000  2.5331 11.9901  0.0000  0.0000 -0.0001  0.5703  0.0000 -11.6947
4 -0.0001  0.0000  0.0000 -0.0001 -10.8487  1.0175  0.0000 -15.6692 29.4336  0.0001  0.0000 -0.0001 11.8392  0.0000 -21.6704
Element 39
GP#   e_11      e_22      e_33     e_12      s_11       s_22       s_33      s_12      VM      e_1      e_2      e_3      s_1      s_2      s_3 
1 -0.0000  0.0000  0.0000 -0.0000 -8.6927 -0.9922  0.0000 -1.0216  8.4293  0.0000  0.0000 -0.0000  0.0000 -0.8590 -8.8259
2 -0.0000  0.0000  0.0000 -0.0001 -8.3500  0.1500  0.0000 -12.3458 22.9838  0.0001  0.0000 -0.0001  8.9569  0.0000 -17.1569
3 -0.0000  0.0000  0.0000 -0.0000 -6.7803 -0.4185  0.0000 -1.0452  6.8255  0.0000  0.0000 -0.0000  0.0000 -0.2512 -6.9476
4 -0.0000  0.0000  0.0000 -0.0001 -6.4376  0.7237  0.0000 -12.3695 22.4864  0.0001  0.0000 -0.0001 10.0204  0.0000 -15.7343
Element 40
GP#   e_11      e_22      e_33     e_12      s_11       s_22       s_33      s_12      VM      e_1      e_2      e_3      s_1      s_2      s_3 
1 -0.0000  0.0000  0.0000 -0.0000 -2.7594  0.4135  0.0000 -4.5570  8.4394  0.0000  0.0000 -0.0000  3.6523  0.0000 -5.9982
2 -0.0000  0.0000  0.0000 -0.0001 -2.7609  0.4085  0.0000 -8.5159 15.0493  0.0000  0.0000 -0.0001  7.4859  0.0000 -9.8383
3 -0.0000  0.0000  0.0000 -0.0000 -2.1039  0.6101  0.0000 -4.5569  8.2690  0.0000  0.0000 -0.0000  4.0077  0.0000 -5.5015
4 -0.0000  0.0000  0.0000 -0.0001 -2.1054  0.6051  0.0000 -8.5158 14.9543  0.0001  0.0000 -0.0001  7.8729  0.0000 -9.3731
Element 41
GP#   e_11      e_22      e_33     e_12      s_11       s_22       s_33      s_12      VM      e_1      e_2      e_3      s_1      s_2      s_3 
1 -0.0001  0.0000  0.0000  0.0001 -15.5770 -1.3272  0.0000  8.1182 20.5291  0.0000  0.0000 -0.0001  2.3492  0.0000 -19.2534
2 -0.0001  0.0000  0.0000 -0.0001 -16.3845 -4.0188  0.0000 -18.7129 35.6269  0.0001  0.0000 -0.0002  9.5063  0.0000 -29.9096
3 -0.0000  0.0000  0.0000  0.0001 -10.1822  0.2912  0.0000  8.1845 17.5409  0.0000  0.0000 -0.0001  4.7709  0.0000 -14.6619
4 -0.0000  0.0000  0.0000 -0.0001 -10.9897 -2.4004  0.0000 -18.6466 33.8119  0.0001  0.0000 -0.0001 12.4398  0.0000 -25.8299
Element 42
GP#   e_11      e_22      e_33     e_12      s_11       s_22       s_33      s_12      VM      e_1      e_2      e_3      s_1      s_2      s_3 
1 -0.0001  0.0000  0.0000  0.0000 -13.3663 -0.9254  0.0000  4.7578 15.3315  0.0000  0.0000 -0.0001  0.6855  0.0000 -14.9773
2 -0.0001  0.0000  0.0000 -0.0001 -13.0869  0.0061  0.0000 -20.1636 37.2968  0.0001  0.0000 -0.0002 14.6592  0.0000 -27.7400
3 -0.0000  0.0000  0.0000  0.0000 -8.7267  0.4664  0.0000  4.7366 12.1552  0.0000  0.0000 -0.0001  2.4701  0.0000 -10.7304
4 -0.0000  0.0000  0.0000 -0.0001 -8.4472  1.3979  0.0000 -20.1848 36.1579  0.0001  0.0000 -0.0001 17.2517  0.0000 -24.3010
Element 43
GP#   e_11      e_22      e_33     e_12      s_11       s_22       s_33      s_12      VM      e_1      e_2      e_3      s_1      s_2      s_3 
1 -0.0000  0.0000  0.0000  0.0000 -9.2495 -0.7538  0.0000  2.3125  9.7566  0.0000  0.0000 -0.0000  0.0000 -0.1651 -9.8381
2 -0.0000  0.0000  0.0000 -0.0001 -9.0677 -0.1479  0.0000 -15.9058 28.9808  0.0001  0.0000 -0.0001 11.9114  0.0000 -21.1270
3 -0.0000  0.0000  0.0000  0.0000 -6.0497  0.2061  0.0000  2.2995  7.3316  0.0000  0.0000 -0.0000  0.9604  0.0000 -6.8040
4 -0.0000  0.0000  0.0000 -0.0001 -5.8680  0.8120  0.0000 -15.9188 28.2858  0.0001  0.0000 -0.0001 13.7374  0.0000 -18.7934
Element 44
GP#   e_11      e_22      e_33     e_12      s_11       s_22       s_33      s_12      VM      e_1      e_2      e_3      s_1      s_2      s_3 
1 -0.0000  0.0000  0.0000 -0.0000 -5.5955 -0.7130  0.0000 -1.2831  5.7243  0.0000  0.0000 -0.0000  0.0000 -0.3963 -5.9122
2 -0.0000  0.0000  0.0000 -0.0001 -5.3896 -0.0263  0.0000 -12.5913 22.4617  0.0001  0.0000 -0.0001 10.1657  0.0000 -15.5816
3 -0.0000  0.0000  0.0000 -0.0000 -3.6858 -0.1400  0.0000 -1.2973  4.2589  0.0000  0.0000 -0.0000  0.2839  0.0000 -4.1098
4 -0.0000  0.0000  0.0000 -0.0001 -3.4799  0.5466  0.0000 -12.6055 22.1586  0.0001  0.0000 -0.0001 11.2986  0.0000 -14.2319
Element 45
GP#   e_11      e_22      e_33     e_12      s_11       s_22       s_33      s_12      VM      e_1      e_2      e_3      s_1      s_2      s_3 
1 -0.0000  0.0000  0.0000 -0.0000 -1.7826  0.2250  0.0000 -4.7818  8.4985  0.0000  0.0000 -0.0000  4.1072  0.0000 -5.6648
2 -0.0000  0.0000  0.0000 -0.0001 -1.7881  0.2067  0.0000 -8.7443 15.2642  0.0001  0.0000 -0.0001  8.0103  0.0000 -9.5917
3 -0.0000  0.0000  0.0000 -0.0000 -1.1265  0.4219  0.0000 -4.7814  8.3968  0.0000  0.0000 -0.0000  4.4913  0.0000 -5.1960
4 -0.0000  0.0000  0.0000 -0.0001 -1.1320  0.4035  0.0000 -8.7439 15.2075  0.0001  0.0000 -0.0001  8.4133  0.0000 -9.1418
Element 46
GP#   e_11      e_22      e_33     e_12      s_11       s_22       s_33      s_12      VM      e_1      e_2      e_3      s_1      s_2      s_3 
1 -0.0000  0.0000  0.0000  0.0001 -6.9764 -0.9806  0.0000  8.0858 15.4575  0.0000  0.0000 -0.0001  4.6452  0.0000 -12.6022
2 -0.0000  0.0000  0.0000 -0.0001 -7.2448 -1.8754  0.0000 -18.6494 32.9517  0.0001  0.0000 -0.0001 14.2815  0.0000 -23.4017
3 -0.0000  0.0000  0.0000  0.0001 -1.6009  0.6321  0.0000  8.1079 14.1841  0.0000  0.0000 -0.0001  7.7000  0.0000 -8.6688
4 -0.0000  0.0000  0.0000 -0.0001 -1.8693 -0.2627  0.0000 -18.6274 32.3111  0.0001  0.0000 -0.0001 17.5786  0.0000 -19.7107
Element 47
GP#   e_11      e_22      e_33     e_12      s_11       s_22       s_33      s_12      VM      e_1      e_2      e_3      s_1      s_2      s_3 
1 -0.0000  0.0000  0.0000  0.0000 -6.0059 -0.7728  0.0000  4.5994  9.7719  0.0000  0.0000 -0.0000  1.9022  0.0000 -8.6810
2 -0.0000  0.0000  0.0000 -0.0001 -5.9139 -0.4660  0.0000 -20.3507 35.7055  0.0001  0.0000 -0.0001 17.3422  0.0000 -23.7221
3 -0.0000  0.0000  0.0000  0.0000 -1.3610  0.6206  0.0000  4.5924  8.1457  0.0000  0.0000 -0.0000  4.3279  0.0000 -5.0682
4 -0.0000  0.0000  0.0000 -0.0001 -1.2689  0.9275  0.0000 -20.3577 35.3122  0.0001  0.0000 -0.0001 20.2166  0.0000 -20.5580
Element 48
GP#   e_11      e_22      e_33     e_12      s_11       s_22       s_33      s_12      VM      e_1      e_2      e_3      s_1      s_2      s_3 
1 -0.0000  0.0000  0.0000  0.0000 -4.1509 -0.5714  0.0000  2.1892  5.4371  0.0000  0.0000 -0.0000  0.4665  0.0000 -5.1888
2 -0.0000  0.0000  0.0000 -0.0001 -4.0899 -0.3680  0.0000 -16.0382 28.0540  0.0001  0.0000 -0.0001 13.9168  0.0000 -18.3747
3 -0.0000  0.0000  0.0000  0.0000 -0.9496  0.3890  0.0000  2.1848  3.9677  0.0000  0.0000 -0.0000  2.0047  0.0000 -2.5653
4 -0.0000  0.0000  0.0000 -0.0001 -0.8886  0.5924  0.0000 -16.0426 27.8165  0.0001  0.0000 -0.0001 15.9115  0.0000 -16.2077
Element 49
GP#   e_11      e_22      e_33     e_12      s_11       s_22       s_33      s_12      VM      e_1      e_2      e_3      s_1      s_2      s_3 
1 -0.0000  0.0000  0.0000 -0.0000 -2.5008 -0.4290  0.0000 -1.4164  3.3740  0.0000  0.0000 -0.0000  0.2899  0.0000 -3.2197
2 -0.0000  0.0000  0.0000 -0.0001 -2.4321 -0.1998  0.0000 -12.7161 22.1488  0.0001  0.0000 -0.0001 11.4491  0.0000 -14.0810
3 -0.0000  0.0000  0.0000 -0.0000 -0.5926  0.1435  0.0000 -1.4211  2.5526  0.0000  0.0000 -0.0000  1.2435  0.0000 -1.6925
4 -0.0000  0.0000  0.0000 -0.0001 -0.5238  0.3726  0.0000 -12.7209 22.0470  0.0001  0.0000 -0.0001 12.6532  0.0000 -12.8043
Element 50
GP#   e_11      e_22      e_33     e_12      s_11       s_22       s_33      s_12      VM      e_1      e_2      e_3      s_1      s_2      s_3 
1 -0.0000  0.0000  0.0000 -0.0000 -0.8123  0.0121  0.0000 -4.8938  8.5158  0.0000  0.0000 -0.0000  4.5110  0.0000 -5.3113
2 -0.0000  0.0000  0.0000 -0.0001 -0.8149  0.0034  0.0000 -8.8583 15.3647  0.0001  0.0000 -0.0001  8.4620  0.0000 -9.2735
3 -0.0000  0.0000 -0.0000 -0.0000 -0.1559  0.2090  0.0000 -4.8937  8.4820  0.0000 -0.0000 -0.0000  4.9236  0.0000 -4.8705
4 -0.0000  0.0000 -0.0000 -0.0001 -0.1585  0.2003  0.0000 -8.8581 15.3458  0.0001 -0.0000 -0.0001  8.8808  0.0000 -8.8390
Element 51
GP#   e_11      e_22      e_33     e_12      s_11       s_22       s_33      s_12      VM      e_1      e_2      e_3      s_1      s_2      s_3 
1  0.0000 -0.0000 -0.0000  0.0001  1.6009 -0.6321  0.0000  8.1079 14.1841  0.0001 -0.0000 -0.0000  8.6688  0.0000 -7.7000
2  0.0000 -0.0000 -0.0000 -0.0001  1.8693  0.2627  0.0000 -18.6274 32.3111  0.0001 -0.0000 -0.0001 19.7107  0.0000 -17.5786
3  0.0000 -0.0000 -0.0000  0.0001  6.9764  0.9806  0.0000  8.0858 15.4575  0.0001 -0.0000 -0.0000 12.6022  0.0000 -4.6452
4  0.0000 -0.0000 -0.0000 -0.0001  7.2448  1.8754  0.0000 -18.6494 32.9517  0.0001 -0.0000 -0.0001 23.4017  0.0000 -14.2815
Element 52
GP#   e_11      e_22      e_33     e_12      s_11       s_22       s_33      s_12      VM      e_1      e_2      e_3      s_1      s_2      s_3 
1  0.0000 -0.0000 -0.0000  0.0000  1.3610 -0.6206  0.0000  4.5924  8.1457  0.0000 -0.0000 -0.0000  5.0682  0.0000 -4.3279
2  0.0000 -0.0000 -0.0000 -0.0001  1.2689 -0.9275  0.0000 -20.3577 35.3122  0.0001 -0.0000 -0.0001 20.5580  0.0000 -20.2166
3  0.0000 -0.0000 -0.0000  0.0000  6.0059  0.7728  0.0000  4.5994  9.7719  0.0000 -0.0000 -0.0000  8.6810  0.0000 -1.9022
4  0.0000 -0.0000 -0.0000 -0.0001  5.9139  0.4660  0.0000 -20.3507 35.7055  0.0001 -0.0000 -0.0001 23.7221  0.0000 -17.3422
Element 53
GP#   e_11      e_22      e_33     e_12      s_11       s_22       s_33      s_12      VM      e_1      e_2      e_3      s_1      s_2      s_3 
1  0.0000 -0.0000 -0.0000  0.0000  0.9496 -0.3890  0.0000  2.1848  3.9677  0.0000 -0.0000 -0.0000  2.5653  0.0000 -2.0047
2  0.0000 -0.0000 -0.0000 -0.0001  0.8886 -0.5924  0.0000 -16.0426 27.8165  0.0001 -0.0000 -0.0001 16.2077  0.0000 -15.9115
3  0.0000 -0.0000 -0.0000  0.0000  4.1509  0.5714  0.0000  2.1892  5.4371  0.0000 -0.0000 -0.0000  5.1888  0.0000 -0.4665
4  0.0000 -0.0000 -0.0000 -0.0001  4.0899  0.3680  0.0000 -16.0382 28.0540  0.0001 -0.0000 -0.0001 18.3747  0.0000 -13.9168
Element 54
GP#   e_11      e_22      e_33     e_12      s_11       s_22       s_33      s_12      VM      e_1      e_2      e_3      s_1      s_2      s_3 
1  0.0000 -0.0000 -0.0000 -0.0000  0.5926 -0.1435  0.0000 -1.4211  2.5526  0.0000 -0.0000 -0.0000  1.6925  0.0000 -1.2435
2  0.0000 -0.0000 -0.0000 -0.0001  0.5238 -0.3726  0.0000 -12.7209 22.0470  0.0001 -0.0000 -0.0001 12.8043  0.0000 -12.6532
3  0.0000 -0.0000 -0.0000 -0.0000  2.5008  0.4290  0.0000 -1.4164  3.3740  0.0000 -0.0000 -0.0000  3.2197  0.0000 -0.2899
4  0.0000 -0.0000 -0.0000 -0.0001  2.4321  0.1998  0.0000 -12.7161 22.1488  0.0001 -0.0000 -0.0001 14.0810  0.0000 -11.4491
Element 55
GP#   e_11      e_22      e_33     e_12      s_11       s_22       s_33      s_12      VM      e_1      e_2      e_3      s_1      s_2      s_3 
1  0.0000 -0.0000  0.0000 -0.0000  0.1559 -0.2090  0.0000 -4.8937  8.4820  0.0000  0.0000 -0.0000  4.8705  0.0000 -4.9236
2  0.0000 -0.0000  0.0000 -0.0001  0.1585 -0.2003  0.0000 -8.8581 15.3458  0.0001  0.0000 -0.0001  8.8390  0.0000 -8.8808
3  0.0000 -0.0000 -0.0000 -0.0000  0.8123 -0.0121  0.0000 -4.8938  8.5158  0.0000 -0.0000 -0.0000  5.3113  0.0000 -4.5110
4  0.0000 -0.0000 -0.0000 -0.0001  0.8149 -0.0034  0.0000 -8.8583 15.3647  0.0001 -0.0000 -0.0001  9.2735  0.0000 -8.4620
Element 56
GP#   e_11      e_22      e_33     e_12      s_11       s_22       s_33      s_12      VM      e_1      e_2      e_3      s_1      s_2      s_3 
1  0.0000 -0.0000 -0.0000  0.0001 10.1822 -0.2912  0.0000  8.1845 17.5409  0.0001 -0.0000 -0.0000 14.6619  0.0000 -4.7709
2  0.0000 -0.0000 -0.0000 -0.0001 10.9897  2.4004  0.0000 -18.6466 33.8119  0.0001 -0.0000 -0.0001 25.8299  0.0000 -12.4398
3  0.0001 -0.0000 -0.0000  0.0001 15.5770  1.3272  0.0000  8.1182 20.5291  0.0001 -0.0000 -0.0000 19.2534  0.0000 -2.3492
4  0.0001 -0.0000 -0.0000 -0.0001 16.3845  4.0188  0.0000 -18.7129 35.6269  0.0002 -0.0000 -0.0001 29.9096  0.0000 -9.5063
Element 57
GP#   e_11      e_22      e_33     e_12      s_11       s_22       s_33      s_12      VM      e_1      e_2      e_3      s_1      s_2      s_3 
1  0.0000 -0.0000 -0.0000  0.0000  8.7267 -0.4664  0.0000  4.7366 12.1552  0.0001 -0.0000 -0.0000 10.7304  0.0000 -2.4701
2  0.0000 -0.0000 -0.0000 -0.0001  8.4472 -1.3979  0.0000 -20.1848 36.1579  0.0001 -0.0000 -0.0001 24.3010  0.0000 -17.2517
3  0.0001 -0.0000 -0.0000  0.0000 13.3663  0.9254  0.0000  4.7578 15.3315  0.0001 -0.0000 -0.0000 14.9773  0.0000 -0.6855
4  0.0001 -0.0000 -0.0000 -0.0001 13.0869 -0.0061  0.0000 -20.1636 37.2968  0.0002 -0.0000 -0.0001 27.7400  0.0000 -14.6592
Element 58
GP#   e_11      e_22      e_33     e_12      s_11       s_22       s_33      s_12      VM      e_1      e_2      e_3      s_1      s_2      s_3 
1  0.0000 -0.0000 -0.0000  0.0000  6.0497 -0.2061  0.0000  2.2995  7.3316  0.0000 -0.0000 -0.0000  6.8040  0.0000 -0.9604
2  0.0000 -0.0000 -0.0000 -0.0001  5.8680 -0.8120  0.0000 -15.9188 28.2858  0.0001 -0.0000 -0.0001 18.7934  0.0000 -13.7374
3  0.0000 -0.0000 -0.0000  0.0000  9.2495  0.7538  0.0000  2.3125  9.7566  0.0000 -0.0000 -0.0000  9.8381  0.1651  0.0000
4  0.0000 -0.0000 -0.0000 -0.0001  9.0677  0.1479  0.0000 -15.9058 28.9808  0.0001 -0.0000 -0.0001 21.1270  0.0000 -11.9114
Element 59
GP#   e_11      e_22      e_33     e_12      s_11       s_22       s_33      s_12      VM      e_1      e_2      e_3      s_1      s_2      s_3 
1  0.0000 -0.0000 -0.0000 -0.0000  3.6858  0.1400  0.0000 -1.2973  4.2589  0.0000 -0.0000 -0.0000  4.1098  0.0000 -0.2839
2  0.0000 -0.0000 -0.0000 -0.0001  3.4799 -0.5466  0.0000 -12.6055 22.1586  0.0001 -0.0000 -0.0001 14.2319  0.0000 -11.2986
3  0.0000 -0.0000 -0.0000 -0.0000  5.5955  0.7130  0.0000 -1.2831  5.7243  0.0000 -0.0000 -0.0000  5.9122  0.3963  0.0000
4  0.0000 -0.0000 -0.0000 -0.0001  5.3896  0.0263  0.0000 -12.5913 22.4617  0.0001 -0.0000 -0.0001 15.5816  0.0000 -10.1657
Element 60
GP#   e_11      e_22      e_33     e_12      s_11       s_22       s_33      s_12      VM      e_1      e_2      e_3      s_1      s_2      s_3 
1  0.0000 -0.0000 -0.0000 -0.0000  1.1265 -0.4219  0.0000 -4.7814  8.3968  0.0000 -0.0000 -0.0000  5.1960  0.0000 -4.4913
2  0.0000 -0.0000 -0.0000 -0.0001  1.1320 -0.4035  0.0000 -8.7439 15.2075  0.0001 -0.0000 -0.0001  9.1418  0.0000 -8.4133
3  0.0000 -0.0000 -0.0000 -0.0000  1.7826 -0.2250  0.0000 -4.7818  8.4985  0.0000 -0.0000 -0.0000  5.6648  0.0000 -4.1072
4  0.0000 -0.0000 -0.0000 -0.0001  1.7881 -0.2067  0.0000 -8.7443 15.2642  0.0001 -0.0000 -0.0001  9.5917  0.0000 -8.0103
Element 61
GP#   e_11      e_22      e_33     e_12      s_11       s_22       s_33      s_12      VM      e_1      e_2      e_3      s_1      s_2      s_3 
1  0.0001 -0.0000 -0.0000  0.0001 18.7955  0.0328  0.0000  8.3188 23.6699  0.0001 -0.0000 -0.0000 21.9526  0.0000 -3.1243
2  0.0001 -0.0000 -0.0000 -0.0001 20.1484  4.5424  0.0000 -18.7067 37.2141  0.0002 -0.0000 -0.0001 32.6143  0.0000 -7.9235
3  0.0001 -0.0000 -0.0000  0.0001 24.2293  1.6629  0.0000  8.2077 27.4160  0.0001 -0.0000 -0.0000 26.8988  0.0000 -1.0066
4  0.0001 -0.0000 -0.0000 -0.0001 25.5822  6.1726  0.0000 -18.8178 39.9621  0.0002 -0.0000 -0.0001 37.0503  0.0000 -5.2955
Element 62
GP#   e_11      e_22      e_33     e_12      s_11       s_22       s_33      s_12      VM      e_1      e_2      e_3      s_1      s_2      s_3 
1  0.0001 -0.0000 -0.0000  0.0000 16.0833 -0.3077  0.0000  5.0313 18.4298  0.0001 -0.0000 -0.0000 17.5045  0.0000 -1.7289
2  0.0001 -0.0000 -0.0000 -0.0001 15.6066 -1.8967  0.0000 -19.8284 38.1610  0.0002 -0.0000 -0.0001 28.5288  0.0000 -14.8189
3  0.0001 -0.0000 -0.0000  0.0000 20.7114  1.0807  0.0000  5.0676 22.0179  0.0001 -0.0000 -0.0000 21.9424  0.0000 -0.1502
4  0.0001 -0.0000 -0.0000 -0.0001 20.2347 -0.5083  0.0000 -19.7921 39.9396  0.0002 -0.0000 -0.0001 32.2082  0.0000 -12.4817
Element 63
GP#   e_11      e_22      e_33     e_12      s_11       s_22       s_33      s_12      VM      e_1      e_2      e_3      s_1      s_2      s_3 
1  0.0001 -0.0000 -0.0000  0.0000 11.1471 -0.0227  0.0000  2.5331 11.9901  0.0001 -0.0000 -0.0000 11.6947  0.0000 -0.5703
2  0.0001 -0.0000 -0.0000 -0.0001 10.8487 -1.0175  0.0000 -15.6692 29.4336  0.0001 -0.0000 -0.0001 21.6704  0.0000 -11.8392
3  0.0001 -0.0000 -0.0000  0.0000 14.3440  0.9364  0.0000  2.5545 14.5867  0.0001 -0.0000 -0.0000 14.8142  0.4662  0.0000
4  0.0001 -0.0000 -0.0000 -0.0001 14.0456 -0.0584  0.0000 -15.6478 30.5395  0.0001 -0.0000 -0.0001 24.1570  0.0000 -10.1698
Element 64
GP#   e_11      e_22      e_33     e_12      s_11       s_22       s_33      s_12      VM      e_1      e_2      e_3      s_1      s_2      s_3 
1  0.0000 -0.0000 -0.0000 -0.0000  6.7803  0.4185  0.0000 -1.0452  6.8255  0.0000 -0.0000 -0.0000  6.9476  0.2512  0.0000
2  0.0000 -0.0000 -0.0000 -0.0001  6.4376 -0.7237  0.0000 -12.3695 22.4864  0.0001 -0.0000 -0.0001 15.7343  0.0000 -10.0204
3  0.0000 -0.0000 -0.0000 -0.0000  8.6927  0.9922  0.0000 -1.0216  8.4293  0.0000 -0.0000 -0.0000  8.8259  0.8590  0.0000
4  0.0000 -0.0000 -0.0000 -0.0001  8.3500 -0.1500  0.0000 -12.3458 22.9838  0.0001 -0.0000 -0.0001 17.1569  0.0000 -8.9569
Element 65
GP#   e_11      e_22      e_33     e_12      s_11       s_22       s_33      s_12      VM      e_1      e_2      e_3      s_1      s_2      s_3 
1  0.0000 -0.0000 -0.0000 -0.0000  2.1039 -0.6101  0.0000 -4.5569  8.2690  0.0000 -0.0000 -0.0000  5.5015  0.0000 -4.0077
2  0.0000 -0.0000 -0.0000 -0.0001  2.1054 -0.6051  0.0000 -8.5158 14.9543  0.0001 -0.0000 -0.0001  9.3731  0.0000 -7.8729
3  0.0000 -0.0000 -0.0000 -0.0000  2.7594 -0.4135  0.0000 -4.5570  8.4394  0.0000 -0.0000 -0.0000  5.9982  0.0000 -3.6523
4  0.0000 -0.0000 -0.0000 -0.0001  2.7609 -0.4085  0.0000 -8.5159 15.0493  0.0001 -0.0000 -0.0000  9.8383  0.0000 -7.4859
Element 66
GP#   e_11      e_22      e_33     e_12      s_11       s_22       s_33      s_12      VM      e_1      e_2      e_3      s_1      s_2      s_3 
1  0.0001 -0.0000 -0.0000  0.0001 27.4695  0.3307  0.0000  8.5174 31.0360  0.0001 -0.0000 -0.0001 29.9212  0.0000 -2.1209
2  0.0001 -0.0000 -0.0000 -0.0001 29.3785  6.6940  0.0000 -18.8066 42.0988  0.0002 -0.0000 -0.0001 39.9984  0.0000 -3.9258
3  0.0002 -0.0000 -0.0000  0.0001 32.9634  1.9789  0.0000  8.3606 35.1422  0.0002 -0.0000 -0.0001 35.0754  0.0000 -0.1331
4  0.0002 -0.0000 -0.0000 -0.0001 34.8724  8.3422  0.0000 -18.9633 45.5366  0.0002 -0.0000 -0.0001 44.7497  0.0000 -1.5351
Element 67
GP#   e_11      e_22      e_33     e_12      s_11       s_22       s_33      s_12      VM      e_1      e_2      e_3      s_1      s_2      s_3 
1  0.0001 -0.0000 -0.0000  0.0000 23.4214 -0.1418  0.0000  5.4757 25.3348  0.0001 -0.0000 -0.0000 24.6317  0.0000 -1.3521
2  0.0001 -0.0000 -0.0000 -0.0001 22.7308 -2.4437  0.0000 -19.2806 41.1513  0.0002 -0.0000 -0.0001 33.1692  0.0000 -12.8821
3  0.0001 -0.0000 -0.0000  0.0000 28.0303  1.2409  0.0000  5.5282 29.0541  0.0001 -0.0000 -0.0000 29.1263  0.1449  0.0000
4  0.0001 -0.0000 -0.0000 -0.0001 27.3397 -1.0610  0.0000 -19.2281 43.4368  0.0002 -0.0000 -0.0001 37.0427  0.0000 -10.7640
Element 68
GP#   e_11      e_22      e_33     e_12      s_11       s_22       s_33      s_12      VM      e_1      e_2      e_3      s_1      s_2      s_3 
1  0.0001 -0.0000 -0.0000  0.0000 16.2402  0.1616  0.0000  2.8854 16.9151  0.0001 -0.0000 -0.0000 16.7423  0.0000 -0.3405
2  0.0001 -0.0000 -0.0000 -0.0001 15.8321 -1.1987  0.0000 -15.2982 31.1957  0.0001 -0.0000 -0.0001 24.8251  0.0000 -10.1918
3  0.0001 -0.0000 -0.0000  0.0000 19.4338  1.1197  0.0000  2.9147 19.5615  0.0001 -0.0000 -0.0000 19.8865  0.6670  0.0000
4  0.0001 -0.0000 -0.0000 -0.0001 19.0257 -0.2406  0.0000 -15.2689 32.6502  0.0001 -0.0000 -0.0001 27.4463  0.0000 -8.6612
Element 69
GP#   e_11      e_22      e_33     e_12      s_11       s_22       s_33      s_12      VM      e_1      e_2      e_3      s_1      s_2      s_3 
1  0.0000 -0.0000 -0.0000 -0.0000  9.8768  0.6886  0.0000 -0.6656  9.6205  0.0000 -0.0000 -0.0000  9.9248  0.6406  0.0000
2  0.0000 -0.0000 -0.0000 -0.0001  9.3983 -0.9065  0.0000 -12.0116 23.0327  0.0001 -0.0000 -0.0001 17.3159  0.0000 -8.8242
3  0.0001 -0.0000 -0.0000 -0.0000 11.7929  1.2634  0.0000 -0.6326 11.2681  0.0001 -0.0000 -0.0000 11.8308  1.2255  0.0000
4  0.0001 -0.0000 -0.0000 -0.0001 11.3144 -0.3317  0.0000 -11.9786 23.7137  0.0001 -0.0000 -0.0001 18.8103  0.0000 -7.8277
Element 70
GP#   e_11      e_22      e_33     e_12      s_11       s_22       s_33      s_12      VM      e_1      e_2      e_3      s_1      s_2      s_3 
1  0.0000 -0.0000 -0.0000 -0.0000  3.0926 -0.7575  0.0000 -4.2196  8.1176  0.0000 -0.0000 -0.0000  5.8055  0.0000 -3.4704
2  0.0000 -0.0000 -0.0000 -0.0001  3.0786 -0.8041  0.0000 -8.1741 14.5961  0.0001 -0.0000 -0.0000  9.5387  0.0000 -7.2642
3  0.0000 -0.0000 -0.0000 -0.0000  3.7473 -0.5611  0.0000 -4.2186  8.3577  0.0000 -0.0000 -0.0000  6.3299  0.0000 -3.1437
4  0.0000 -0.0000 -0.0000 -0.0001  3.7334 -0.6076  0.0000 -8.1731 14.7301  0.0001 -0.0000 -0.0000 10.0193  0.0000 -6.8936
Element 71
GP#   e_11      e_22      e_33     e_12      s_11       s_22       s_33      s_12      VM      e_1      e_2      e_3      s_1      s_2      s_3 
1  0.0002 -0.0000 -0.0000  0.0001 36.2354  0.5943  0.0000  8.7904 39.0338  0.0002 -0.0000 -0.0001 38.2855  0.0000 -1.4559
2  0.0002 -0.0000 -0.0000 -0.0001 38.7154  8.8611  0.0000 -18.9447 48.0733  0.0002 -0.0000 -0.0001 47.9072  0.0000 -0.3307
3  0.0002 -0.0000 -0.0000  0.0001 41.8119  2.2672  0.0000  8.5868 43.3564  0.0002 -0.0000 -0.0001 43.5960  0.4831  0.0000
4  0.0002 -0.0000 -0.0001 -0.0001 44.2920 10.5340  0.0000 -19.1483 52.0206  0.0002 -0.0001 -0.0001 52.9386  1.8874  0.0000
Element 72
GP#   e_11      e_22      e_33     e_12      s_11       s_22       s_33      s_12      VM      e_1      e_2      e_3      s_1      s_2      s_3 
1  0.0001 -0.0000 -0.0000  0.0000 30.7287  0.0342  0.0000  6.0680 32.4602  0.0002 -0.0000 -0.0001 31.8847  0.0000 -1.1219
2  0.0001 -0.0001 -0.0000 -0.0001 29.8007 -3.0593  0.0000 -18.5291 44.9288  0.0002 -0.0000 -0.0001 38.1350  0.0000 -11.3937
3  0.0002 -0.0000 -0.0000  0.0000 35.3080  1.4079  0.0000  6.1386 36.2211  0.0002 -0.0000 -0.0001 36.3853  0.3306  0.0000
4  0.0002 -0.0001 -0.0000 -0.0001 34.3799 -1.6855  0.0000 -18.4586 47.5912  0.0002 -0.0000 -0.0001 42.1522  0.0000 -9.4578
Element 73
GP#   e_11      e_22      e_33     e_12      s_11       s_22       s_33      s_12      VM      e_1      e_2      e_3      s_1      s_2      s_3 
1  0.0001 -0.0000 -0.0000  0.0000 21.3287  0.3469  0.0000  3.3562 21.9414  0.0001 -0.0000 -0.0000 21.8524  0.0000 -0.1768
2  0.0001 -0.0000 -0.0000 -0.0001 20.8213 -1.3443  0.0000 -14.8135 33.4909  0.0001 -0.0000 -0.0001 28.2390  0.0000 -8.7620
3  0.0001 -0.0000 -0.0000  0.0000 24.5198  1.3043  0.0000  3.3926 24.6063  0.0001 -0.0000 -0.0000 25.0055  0.8187  0.0000
4  0.0001 -0.0000 -0.0000 -0.0001 24.0125 -0.3870  0.0000 -14.7771 35.2297  0.0002 -0.0000 -0.0001 30.9751  0.0000 -7.3496
Element 74
GP#   e_11      e_22      e_33     e_12      s_11       s_22       s_33      s_12      VM      e_1      e_2      e_3      s_1      s_2      s_3 
1  0.0001 -0.0000 -0.0000 -0.0000 12.9757  0.9469  0.0000 -0.1597 12.5322  0.0001 -0.0000 -0.0000 12.9778  0.9448  0.0000
2  0.0001 -0.0000 -0.0000 -0.0001 12.3621 -1.0984  0.0000 -11.5298 23.7995  0.0001 -0.0000 -0.0001 18.9823  0.0000 -7.7186
3  0.0001 -0.0000 -0.0000 -0.0000 14.8959  1.5229  0.0000 -0.1174 14.1973  0.0001 -0.0000 -0.0000 14.8969  1.5219  0.0000
4  0.0001 -0.0000 -0.0000 -0.0001 14.2823 -0.5224  0.0000 -11.4875 24.6497  0.0001 -0.0000 -0.0001 20.5459  0.0000 -6.7860
Element 75
GP#   e_11      e_22      e_33     e_12      s_11       s_22       s_33      s_12      VM      e_1      e_2      e_3      s_1      s_2      s_3 
1  0.0000 -0.0000 -0.0000 -0.0000  4.0973 -0.8477  0.0000 -3.7687  7.9742  0.0000 -0.0000 -0.0000  6.1321  0.0000 -2.8826
2  0.0000 -0.0000 -0.0000 -0.0000  4.0520 -0.9987  0.0000 -7.7190 14.1496  0.0001 -0.0000 -0.0000  9.6482  0.0000 -6.5950
3  0.0000 -0.0000 -0.0000 -0.0000  4.7513 -0.6515  0.0000 -3.7656  8.2846  0.0000 -0.0000 -0.0000  6.6843  0.0000 -2.5845
4  0.0000 -0.0000 -0.0000 -0.0000  4.7060 -0.8025  0.0000 -7.7159 14.3239  0.0001 -0.0000 -0.0000 10.1445  0.0000 -6.2410
Element 76
GP#   e_11      e_22      e_33     e_12      s_11       s_22       s_33      s_12      VM      e_1      e_2      e_3      s_1      s_2      s_3 
1  0.0002 -0.0001 -0.0000  0.0001 45.1274  0.8160  0.0000  9.1528 47.4515  0.0002 -0.0000 -0.0001 46.9435  0.0000 -1.0001
2  0.0002 -0.0000 -0.0001 -0.0001 48.1977 11.0504  0.0000 -19.1188 54.8553  0.0003 -0.0001 -0.0001 56.2794  2.9687  0.0000
3  0.0002 -0.0001 -0.0001  0.0001 50.8118  2.5213  0.0000  8.9007 51.9398  0.0002 -0.0001 -0.0001 52.4001  0.9330  0.0000
4  0.0002 -0.0000 -0.0001 -0.0001 53.8821 12.7557  0.0000 -19.3708 59.1977  0.0003 -0.0001 -0.0001 61.5691  5.0687  0.0000
Element 77
GP#   e_11      e_22      e_33     e_12      s_11       s_22       s_33      s_12      VM      e_1      e_2      e_3      s_1      s_2      s_3 
1  0.0002 -0.0001 -0.0000  0.0000 37.9884  0.2230  0.0000  6.8050 39.6689  0.0002 -0.0000 -0.0001 39.1772  0.0000 -0.9658
2  0.0002 -0.0001 -0.0000 -0.0001 36.7920 -3.7652  0.0000 -17.5566 49.3057  0.0002 -0.0000 -0.0001 43.3360  0.0000 -10.3092
3  0.0002 -0.0001 -0.0000  0.0000 42.5238  1.5836  0.0000  6.8960 43.4293  0.0002 -0.0000 -0.0001 43.6542  0.4533  0.0000
4  0.0002 -0.0001 -0.0000 -0.0001 41.3274 -2.4045  0.0000 -17.4656 52.2327  0.0002 -0.0000 -0.0001 47.4466  0.0000 -8.5237
Element 78
GP#   e_11      e_22      e_33     e_12      s_11       s_22       s_33      s_12      VM      e_1      e_2      e_3      s_1      s_2      s_3 
1  0.0001 -0.0000 -0.0000  0.0000 26.4146  0.5334  0.0000  3.9455 27.0301  0.0001 -0.0000 -0.0000 27.0027  0.0000 -0.0547
2  0.0001 -0.0000 -0.0000 -0.0001 25.8223 -1.4408  0.0000 -14.2263 36.2386  0.0002 -0.0000 -0.0001 31.8937  0.0000 -7.5123
3  0.0001 -0.0000 -0.0000  0.0000 29.6061  1.4909  0.0000  3.9880 29.7039  0.0001 -0.0000 -0.0000 30.1609  0.9361  0.0000
4  0.0001 -0.0000 -0.0000 -0.0001 29.0139 -0.4834  0.0000 -14.1839 38.2048  0.0002 -0.0000 -0.0001 34.7275  0.0000 -6.1970
Element 79
GP#   e_11      e_22      e_33     e_12      s_11       s_22       s_33      s_12      VM      e_1      e_2      e_3      s_1      s_2      s_3 
1  0.0001 -0.0000 -0.0000  0.0000 16.0763  1.1899  0.0000  0.4708 15.5370  0.0001 -0.0000 -0.0000 16.0912  1.1750  0.0000
2  0.0001 -0.0000 -0.0000 -0.0001 15.3281 -1.3042  0.0000 -10.9205 24.7874  0.0001 -0.0000 -0.0001 20.7384  0.0000 -6.7145
3  0.0001 -0.0000 -0.0000  0.0000 18.0000  1.7670  0.0000  0.5224 17.2086  0.0001 -0.0000 -0.0000 18.0168  1.7502  0.0000
4  0.0001 -0.0000 -0.0000 -0.0001 17.2518 -0.7271  0.0000 -10.8689 25.7894  0.0001 -0.0000 -0.0001 22.3671  0.0000 -5.8424
Element 80
GP#   e_11      e_22      e_33     e_12      s_11       s_22       s_33      s_12      VM      e_1      e_2      e_3      s_1      s_2      s_3 
1  0.0000 -0.0000 -0.0000 -0.0000  5.1230 -0.8646  0.0000 -3.2027  7.8862  0.0000 -0.0000 -0.0000  6.5132  0.0000 -2.2548
2  0.0000 -0.0000 -0.0000 -0.0000  5.0263 -1.1870  0.0000 -7.1514 13.6406  0.0001 -0.0000 -0.0000  9.7167  0.0000 -5.8774
3  0.0000 -0.0000 -0.0000 -0.0000  5.7768 -0.6685  0.0000 -3.1961  8.2659  0.0000 -0.0000 -0.0000  7.0929  0.0000 -1.9846
4  0.0000 -0.0000 -0.0000 -0.0000  5.6800 -0.9908  0.0000 -7.1449 13.8571  0.0001 -0.0000 -0.0000 10.2297  0.0000 -5.5405
Element 81
GP#   e_11      e_22      e_33     e_12      s_11       s_22       s_33      s_12      VM      e_1      e_2      e_3      s_1      s_2      s_3 
1  0.0003 -0.0001 -0.0001  0.0001 54.1846  0.9901  0.0000  9.6249 56.2247  0.0003 -0.0001 -0.0001 55.8725  0.0000 -0.6979
2  0.0003 -0.0000 -0.0001 -0.0001 57.8687 13.2703  0.0000 -19.3254 62.2684  0.0003 -0.0001 -0.0001 65.0775  6.0614  0.0000
3  0.0003 -0.0001 -0.0001  0.0001 60.0055  2.7363  0.0000  9.3224 60.8660  0.0003 -0.0001 -0.0001 61.4848  1.2570  0.0000
4  0.0003 -0.0000 -0.0001 -0.0001 63.6895 15.0165  0.0000 -19.6278 66.9419  0.0003 -0.0001 -0.0001 70.6183  8.0878  0.0000
Element 82
GP#   e_11      e_22      e_33     e_12      s_11       s_22       s_33      s_12      VM      e_1      e_2      e_3      s_1      s_2      s_3 
1  0.0002 -0.0001 -0.0000  0.0000 45.1773  0.4277  0.0000  7.6814 46.8920  0.0002 -0.0000 -0.0001 46.4591  0.0000 -0.8541
2  0.0002 -0.0001 -0.0000 -0.0001 43.6737 -4.5842  0.0000 -16.3396 54.1254  0.0002 -0.0000 -0.0001 48.6856  0.0000 -9.5960
3  0.0002 -0.0001 -0.0001  0.0000 49.6493  1.7693  0.0000  7.7957 50.6226  0.0002 -0.0001 -0.0001 50.8866  0.5320  0.0000
4  0.0002 -0.0001 -0.0000 -0.0001 48.1457 -3.2426  0.0000 -16.2253 57.2225  0.0003 -0.0000 -0.0001 52.8398  0.0000 -7.9367
Element 83
GP#   e_11      e_22      e_33     e_12      s_11       s_22       s_33      s_12      VM      e_1      e_2      e_3      s_1      s_2      s_3 
1  0.0001 -0.0000 -0.0000  0.0000 31.5034  0.7212  0.0000  4.6542 32.1753  0.0002 -0.0000 -0.0000 32.1917  0.0329  0.0000
2  0.0001 -0.0001 -0.0000 -0.0001 30.8455 -1.4719  0.0000 -13.5526 39.3704  0.0002 -0.0000 -0.0001 35.7765  0.0000 -6.4030
3  0.0002 -0.0000 -0.0000  0.0000 34.7011  1.6805  0.0000  4.7014 34.8566  0.0002 -0.0000 -0.0000 35.3574  1.0242  0.0000
4  0.0002 -0.0001 -0.0000 -0.0001 34.0432 -0.5126  0.0000 -13.5054 41.5192  0.0002 -0.0000 -0.0001 38.6952  0.0000 -5.1647
Element 84
GP#   e_11      e_22      e_33     e_12      s_11       s_22       s_33      s_12      VM      e_1      e_2      e_3      s_1      s_2      s_3 
1  0.0001 -0.0000 -0.0000  0.0000 19.1762  1.4141  0.0000  1.2233 18.6306  0.0001 -0.0000 -0.0000 19.2601  1.3302  0.0000
2  0.0001 -0.0000 -0.0000 -0.0001 18.2928 -1.5306  0.0000 -10.1779 25.9950  0.0001 -0.0000 -0.0001 22.5878  0.0000 -5.8256
3  0.0001 -0.0000 -0.0000  0.0000 21.1017  1.9917  0.0000  1.2842 20.3019  0.0001 -0.0000 -0.0000 21.1876  1.9058  0.0000
4  0.0001 -0.0000 -0.0000 -0.0001 20.2182 -0.9530  0.0000 -10.1170 27.1295  0.0001 -0.0000 -0.0001 24.2753  0.0000 -5.0101
Element 85
GP#   e_11      e_22      e_33     e_12      s_11       s_22       s_33      s_12      VM      e_1      e_2      e_3      s_1      s_2      s_3 
1  0.0000 -0.0000 -0.0000 -0.0000  6.1754 -0.7922  0.0000 -2.5193  7.9181  0.0000 -0.0000 -0.0000  6.9909  0.0000 -1.6077
2  0.0000 -0.0000 -0.0000 -0.0000  6.0033 -1.3659  0.0000 -6.4731 13.1075  0.0001 -0.0000 -0.0000  9.7670  0.0000 -5.1295
3  0.0000 -0.0000 -0.0000 -0.0000  6.8300 -0.5959  0.0000 -2.5077  8.3630  0.0000 -0.0000 -0.0000  7.5975  0.0000 -1.3634
4  0.0000 -0.0000 -0.0000 -0.0000  6.6579 -1.1695  0.0000 -6.4614 13.3691  0.0001 -0.0000 -0.0000 10.2985  0.0000 -4.8101
Element 86
GP#   e_11      e_22      e_33     e_12      s_11       s_22       s_33      s_12      VM      e_1      e_2      e_3      s_1      s_2      s_3 
1  0.0003 -0.0001 -0.0001  0.0001 63.4527  1.1130  0.0000 10.2346 65.3536  0.0003 -0.0001 -0.0001 65.0899  0.0000 -0.5242
2  0.0003 -0.0000 -0.0001 -0.0001 67.7780 15.5310  0.0000 -19.5596 70.2150  0.0003 -0.0001 -0.0001 74.2891  9.0199  0.0000
3  0.0003 -0.0001 -0.0001  0.0001 69.4432  2.9102  0.0000  9.8795 70.1537  0.0003 -0.0001 -0.0001 70.8792  1.4742  0.0000
4  0.0003 -0.0000 -0.0001 -0.0001 73.7686 17.3282  0.0000 -19.9148 75.1903  0.0004 -0.0001 -0.0001 80.0879 11.0089  0.0000
Element 87
GP#   e_11      e_22      e_33     e_12      s_11       s_22       s_33      s_12      VM      e_1      e_2      e_3      s_1      s_2      s_3 
1  0.0002 -0.0001 -0.0001  0.0001 52.2628  0.6510  0.0000  8.6883 54.0764  0.0003 -0.0001 -0.0001 53.6861  0.0000 -0.7724
2  0.0002 -0.0001 -0.0000 -0.0001 50.4051 -5.5411  0.0000 -14.8475 59.2624  0.0003 -0.0000 -0.0001 54.1013  0.0000 -9.2373
3  0.0003 -0.0001 -0.0001  0.0001 56.6445  1.9655  0.0000  8.8296 57.7495  0.0003 -0.0001 -0.0001 58.0349  0.5751  0.0000
4  0.0003 -0.0001 -0.0001 -0.0001 54.7868 -4.2266  0.0000 -14.7063 62.4488  0.0003 -0.0001 -0.0001 58.2486  0.0000 -7.6884
Element 88
GP#   e_11      e_22      e_33     e_12      s_11       s_22       s_33      s_12      VM      e_1      e_2      e_3      s_1      s_2      s_3 
1  0.0002 -0.0000 -0.0000  0.0000 36.6057  0.9106  0.0000  5.4844 37.3860  0.0002 -0.0000 -0.0001 37.4294  0.0870  0.0000
2  0.0002 -0.0001 -0.0000 -0.0001 35.9073 -1.4177  0.0000 -12.8145 42.8355  0.0002 -0.0000 -0.0001 39.8833  0.0000 -5.3937
3  0.0002 -0.0000 -0.0000  0.0000 39.8196  1.8748  0.0000  5.5345 40.0794  0.0002 -0.0000 -0.0001 40.6104  1.0840  0.0000
4  0.0002 -0.0001 -0.0000 -0.0001 39.1211 -0.4535  0.0000 -12.7645 45.1354  0.0002 -0.0000 -0.0001 42.8810  0.0000 -4.2134
Element 89
GP#   e_11      e_22      e_33     e_12      s_11       s_22       s_33      s_12      VM      e_1      e_2      e_3      s_1      s_2      s_3 
1  0.0001 -0.0000 -0.0000  0.0000 22.2707  1.6156  0.0000  2.0941 21.8121  0.0001 -0.0000 -0.0000 22.4808  1.4055  0.0000
2  0.0001 -0.0000 -0.0000 -0.0001 21.2498 -1.7872  0.0000 -9.2930 27.4191  0.0001 -0.0000 -0.0001 24.5312  0.0000 -5.0685
3  0.0001 -0.0000 -0.0000  0.0000 24.1937  2.1925  0.0000  2.1645 23.4766  0.0001 -0.0000 -0.0000 24.4046  1.9816  0.0000
4  0.0001 -0.0000 -0.0000 -0.0001 23.1728 -1.2103  0.0000 -9.2226 28.6646  0.0001 -0.0000 -0.0001 26.2682  0.0000 -4.3057
Element 90
GP#   e_11      e_22      e_33     e_12      s_11       s_22       s_33      s_12      VM      e_1      e_2      e_3      s_1      s_2      s_3 
1  0.0000 -0.0000 -0.0000 -0.0000  7.2613 -0.6151  0.0000 -1.7153  8.1485  0.0000 -0.0000 -0.0000  7.6187  0.0000 -0.9725
2  0.0000 -0.0000 -0.0000 -0.0000  6.9865 -1.5311  0.0000 -5.6871 12.6049  0.0001 -0.0000 -0.0000  9.8327  0.0000 -4.3773
3  0.0000 -0.0000 -0.0000 -0.0000  7.9189 -0.4178  0.0000 -1.6967  8.6504  0.0000 -0.0000 -0.0000  8.2510  0.0000 -0.7500
4  0.0000 -0.0000 -0.0000 -0.0000  7.6441 -1.3338  0.0000 -5.6686 12.9153  0.0001 -0.0000 -0.0000 10.3859  0.0000 -4.0756
Element 91
GP#   e_11      e_22      e_33     e_12      s_11       s_22       s_33      s_12      VM      e_1      e_2      e_3      s_1      s_2      s_3 
1  0.0003 -0.0001 -0.0001  0.0001 72.9859  1.1849  0.0000 11.0191 74.8741  0.0004 -0.0001 -0.0001 74.6389  0.0000 -0.4681
2  0.0003 -0.0000 -0.0001 -0.0001 77.9842 17.8458  0.0000 -19.8145 78.6521  0.0004 -0.0001 -0.0001 83.9257 11.9043  0.0000
3  0.0004 -0.0001 -0.0001  0.0001 79.1854  3.0447  0.0000 10.6087 79.8507  0.0004 -0.0001 -0.0001 80.6359  1.5943  0.0000
4  0.0004 -0.0000 -0.0001 -0.0001 84.1837 19.7056  0.0000 -20.2249 83.9253  0.0004 -0.0001 -0.0001 90.0025 13.8868  0.0000
Element 92
GP#   e_11      e_22      e_33     e_12      s_11       s_22       s_33      s_12      VM      e_1      e_2      e_3      s_1      s_2      s_3 
1  0.0003 -0.0001 -0.0001  0.0001 59.1999  0.8949  0.0000  9.8119 61.1659  0.0003 -0.0001 -0.0001 60.8068  0.0000 -0.7120
2  0.0003 -0.0001 -0.0001 -0.0001 56.9324 -6.6631  0.0000 -13.0412 64.6163  0.0003 -0.0001 -0.0001 59.5029  0.0000 -9.2336
3  0.0003 -0.0001 -0.0001  0.0001 63.4544  2.1713  0.0000  9.9842 64.7492  0.0003 -0.0001 -0.0001 65.0400  0.5857  0.0000
4  0.0003 -0.0001 -0.0001 -0.0001 61.1870 -5.3868  0.0000 -12.8689 67.8181  0.0003 -0.0001 -0.0001 63.5880  0.0000 -7.7878
Element 93
GP#   e_11      e_22      e_33     e_12      s_11       s_22       s_33      s_12      VM      e_1      e_2      e_3      s_1      s_2      s_3 
1  0.0002 -0.0001 -0.0000  0.0000 41.7396  1.1022  0.0000  6.4404 42.6830  0.0002 -0.0000 -0.0001 42.7359  0.1059  0.0000
2  0.0002 -0.0001 -0.0000 -0.0001 41.0330 -1.2531  0.0000 -12.0426 46.6023  0.0002 -0.0000 -0.0001 44.2221  0.0000 -4.4422
3  0.0002 -0.0001 -0.0000  0.0000 44.9858  2.0760  0.0000  6.4910 45.3987  0.0002 -0.0000 -0.0001 45.9462  1.1156  0.0000
4  0.0002 -0.0001 -0.0000 -0.0001 44.2792 -0.2793  0.0000 -11.9919 49.0358  0.0002 -0.0000 -0.0001 47.3016  0.0000 -3.3016
Element 94
GP#   e_11      e_22      e_33     e_12      s_11       s_22       s_33      s_12      VM      e_1      e_2      e_3      s_1      s_2      s_3 
1  0.0001 -0.0000 -0.0000  0.0000 25.3509  1.7905  0.0000  3.0777 25.0779  0.0001 -0.0000 -0.0000 25.7463  1.3951  0.0000
2  0.0001 -0.0000 -0.0000 -0.0001 24.1876 -2.0873  0.0000 -8.2521 29.0546  0.0001 -0.0000 -0.0001 26.5643  0.0000 -4.4640
3  0.0001 -0.0000 -0.0000  0.0000 27.2643  2.3645  0.0000  3.1580 26.7279  0.0001 -0.0000 -0.0000 27.6585  1.9702  0.0000
4  0.0001 -0.0000 -0.0000 -0.0001 26.1009 -1.5133  0.0000 -8.1718 30.3872  0.0001 -0.0000 -0.0001 28.3380  0.0000 -3.7504
Element 95
GP#   e_11      e_22      e_33     e_12      s_11       s_22       s_33      s_12      VM      e_1      e_2      e_3      s_1      s_2      s_3 
1  0.0000 -0.0000 -0.0000 -0.0000  8.3891 -0.3184  0.0000 -0.7856  8.6603  0.0000 -0.0000 -0.0000  8.4594  0.0000 -0.3887
2  0.0000 -0.0000 -0.0000 -0.0000  7.9818 -1.6763  0.0000 -4.7992 12.2064  0.0001 -0.0000 -0.0000  9.9610  0.0000 -3.6555
3  0.0000 -0.0000 -0.0000 -0.0000  9.0536 -0.1190  0.0000 -0.7581  9.2079  0.0000 -0.0000 -0.0000  9.1159  0.0000 -0.1813
4  0.0000 -0.0000 -0.0000 -0.0000  8.6463 -1.4770  0.0000 -4.7717 12.5705  0.0001 -0.0000 -0.0000 10.5409  0.0000 -3.3716
Element 96
GP#   e_11      e_22      e_33     e_12      s_11       s_22       s_33      s_12      VM      e_1      e_2      e_3      s_1      s_2      s_3 
1  0.0004 -0.0001 -0.0001  0.0001 82.8505  1.2105  0.0000 12.0282 84.8493  0.0004 -0.0001 -0.0001 84.5857  0.0000 -0.5248
2  0.0004 -0.0000 -0.0001 -0.0001 88.5567 20.2315  0.0000 -20.0800 87.5762  0.0004 -0.0001 -0.0001 94.0210 14.7672  0.0000
3  0.0004 -0.0001 -0.0001  0.0001 89.3063  3.1472  0.0000 11.5597 90.0296  0.0004 -0.0001 -0.0001 90.8302  1.6233  0.0000
4  0.0004 -0.0000 -0.0001 -0.0001 95.0126 22.1682  0.0000 -20.5485 93.1626  0.0005 -0.0001 -0.0001 100.4092 16.7715  0.0000
Element 97
GP#   e_11      e_22      e_33     e_12      s_11       s_22       s_33      s_12      VM      e_1      e_2      e_3      s_1      s_2      s_3 
1  0.0003 -0.0001 -0.0001  0.0001 65.9264  1.1606  0.0000 11.0303 68.0891  0.0003 -0.0001 -0.0001 67.7535  0.0000 -0.6664
2  0.0003 -0.0001 -0.0001 -0.0001 63.1842 -7.9803  0.0000 -10.8703 70.1045  0.0003 -0.0001 -0.0001 64.8076  0.0000 -9.6037
3  0.0003 -0.0001 -0.0001  0.0001 70.0037  2.3838  0.0000 11.2388 71.5420  0.0003 -0.0001 -0.0001 71.8227  0.5648  0.0000
4  0.0003 -0.0001 -0.0001 -0.0001 67.2614 -6.7571  0.0000 -10.6619 73.2480  0.0003 -0.0001 -0.0001 68.7666  0.0000 -8.2623
Element 98
GP#   e_11      e_22      e_33     e_12      s_11       s_22       s_33      s_12      VM      e_1      e_2      e_3      s_1      s_2      s_3 
1  0.0002 -0.0001 -0.0000  0.0000 46.9336  1.2967  0.0000  7.5302 48.1009  0.0002 -0.0000 -0.0001 48.1440  0.0863  0.0000
2  0.0002 -0.0001 -0.0000 -0.0001 46.2604 -0.9471  0.0000 -11.2784 50.6591  0.0002 -0.0000 -0.0001 48.8166  0.0000 -3.5033
3  0.0002 -0.0001 -0.0001  0.0000 50.2370  2.2878  0.0000  7.5785 50.8562  0.0002 -0.0001 -0.0001 51.4063  1.1185  0.0000
4  0.0002 -0.0001 -0.0000 -0.0001 49.5638  0.0439  0.0000 -11.2301 53.2236  0.0003 -0.0000 -0.0001 51.9916  0.0000 -2.3838
Element 99
GP#   e_11      e_22      e_33     e_12      s_11       s_22       s_33      s_12      VM      e_1      e_2      e_3      s_1      s_2      s_3 
1  0.0001 -0.0000 -0.0000  0.0000 28.4026  1.9344  0.0000  4.1664 28.4180  0.0001 -0.0000 -0.0000 29.0429  1.2940  0.0000
2  0.0001 -0.0001 -0.0000 -0.0000 27.0874 -2.4495  0.0000 -7.0344 30.8954  0.0001 -0.0000 -0.0001 28.6771  0.0000 -4.0392
3  0.0001 -0.0000 -0.0000  0.0000 30.2941  2.5018  0.0000  4.2571 30.0428  0.0001 -0.0000 -0.0000 30.9316  1.8644  0.0000
4  0.0001 -0.0001 -0.0000 -0.0000 28.9790 -1.8821  0.0000 -6.9437 32.2879  0.0001 -0.0000 -0.0001 30.4693  0.0000 -3.3724
Element 100
GP#   e_11      e_22      e_33     e_12      s_11       s_22       s_33      s_12      VM      e_1      e_2      e_3      s_1      s_2      s_3 
1  0.0000 -0.0000 -0.0000  0.0000  9.5701  0.1118  0.0000  0.2772  9.5268  0.0000 -0.0000 -0.0000  9.5782  0.1036  0.0000
2  0.0000 -0.0000 -0.0000 -0.0000  8.9989 -1.7923  0.0000 -3.8187 12.0028  0.0001 -0.0000 -0.0000 10.2135  0.0000 -3.0069
3  0.0000 -0.0000 -0.0000  0.0000 10.2482  0.3152  0.0000  0.3159 10.1092  0.0000 -0.0000 -0.0000 10.2583  0.3052  0.0000
4  0.0000 -0.0000 -0.0000 -0.0000  9.6770 -1.5889  0.0000 -3.7800 12.4262  0.0001 -0.0000 -0.0000 10.8278  0.0000 -2.7397
