********************************************************
*                      VEMLab 1.0                      *
*      http://camlab.cl/research/software/vemlab       *
*------------------------------------------------------*
*               Linear Elastostatics                   *
********************************************************

Mesh filename: cantilever_beam_q4_nonuniform_4x2.txt
Method: FEM2DQ4
Date: 8-1-2018
Time: 19: 3 hrs

Nodal Displacements: 
 Node      Coords         u1       u2 
1 0.00000000 -2.00000000 0.00013975 -0.00011700
2 2.04934446 -2.00000000 -0.00031372 -0.00033196
3 3.87815558 -2.00000000 -0.00062680 -0.00092132
4 6.73910989 -2.00000000 -0.00088189 -0.00218031
5 8.00000000 -2.00000000 -0.00090967 -0.00285175
6 0.00000000 0.74321546 -0.00006963 -0.00001616
7 1.68925068 -0.05509454 -0.00002102 -0.00019493
8 4.30897743 0.26729790 0.00009053 -0.00102218
9 6.50334259 0.02741207 0.00001127 -0.00204921
10 8.00000000 0.63446483 0.00028231 -0.00283198
11 0.00000000 2.00000000 -0.00013975 -0.00011700
12 2.45048103 2.00000000 0.00039098 -0.00047539
13 4.20567691 2.00000000 0.00066537 -0.00102549
14 6.09669255 2.00000000 0.00084709 -0.00188252
15 8.00000000 2.00000000 0.00091485 -0.00282967
Strains, Stresses, Principal Strains and Principal Stresses: 
(at Gauss points --- 2x2 quadrature rule)

Element 1
GP#   e_11      e_22      e_33     e_12      s_11       s_22       s_33      s_12      VM      e_1      e_2      e_3      s_1      s_2      s_3 
-0.0002  0.0000  0.0000 -0.0001 -2196.2601 -511.2132 -812.2420 -565.9624 1839.4820  0.0001  0.0000 -0.0002 -338.7691 -812.2420 -2368.7042
-0.0000  0.0000  0.0000 -0.0001 -410.1935 257.5507 -45.7928 -511.7367 1058.7574  0.0001  0.0000 -0.0001 534.6983 -45.7928 -687.3411
-0.0002  0.0000  0.0000 -0.0000 -2019.6185 -341.9776 -708.4788 -136.9489 1546.0303  0.0000  0.0000 -0.0002 -330.8718 -708.4788 -2030.7244
-0.0000  0.0000  0.0000  0.0000 269.6997 658.3606 278.4181  0.5691 384.3771  0.0000  0.0000 -0.0000 658.3614 278.4181 269.6989
Element 2
GP#   e_11      e_22      e_33     e_12      s_11       s_22       s_33      s_12      VM      e_1      e_2      e_3      s_1      s_2      s_3 
-0.0001  0.0000  0.0000 -0.0001 -1517.2610 -514.6450 -609.5718 -546.9800 1347.8265  0.0000  0.0000 -0.0001 -273.9982 -609.5718 -1757.9078
-0.0000  0.0000  0.0000 -0.0001 -71.2640 107.9937 11.0189 -496.7387 874.3008  0.0001  0.0000 -0.0001 523.1248 11.0189 -486.3952
-0.0001  0.0000  0.0000 -0.0000 -1554.8997 -496.2566 -615.3469 -80.6481 1014.0739  0.0000  0.0000 -0.0001 -490.1480 -615.3469 -1561.0083
-0.0000  0.0000  0.0000 -0.0000 -194.5616 83.2943 -33.3802 -117.2376 315.6455  0.0000  0.0000 -0.0000 126.1509 -33.3802 -237.4182
Element 3
GP#   e_11      e_22      e_33     e_12      s_11       s_22       s_33      s_12      VM      e_1      e_2      e_3      s_1      s_2      s_3 
-0.0001  0.0000  0.0000 -0.0000 -790.4523 42.7061 -224.3239 -362.2112 967.7658  0.0001  0.0000 -0.0001 178.1552 -224.3239 -925.9014
-0.0000  0.0000  0.0000 -0.0001 -86.1634 364.1638 83.4001 -440.6432 858.8869  0.0001  0.0000 -0.0001 633.8386 83.4001 -355.8383
-0.0001  0.0000  0.0000 -0.0000 -865.2504 -159.8238 -307.5223 -137.9539 687.2735  0.0000  0.0000 -0.0001 -133.8051 -307.5223 -891.2691
-0.0000  0.0000  0.0000 -0.0000 -115.8188 153.9261 11.4322 -185.1083 396.7683  0.0000  0.0000 -0.0000 248.0857 11.4322 -209.9783
Element 4
GP#   e_11      e_22      e_33     e_12      s_11       s_22       s_33      s_12      VM      e_1      e_2      e_3      s_1      s_2      s_3 
-0.0000  0.0000  0.0000 -0.0000 -195.4854 -38.3631 -70.1545 -340.0456 606.2969  0.0000  0.0000 -0.0001 232.0784 -70.1545 -465.9269
-0.0000  0.0000  0.0000 -0.0000 -14.6000 43.3014  8.6104 -318.8335 554.5374  0.0000  0.0000 -0.0000 334.4959  8.6104 -305.7945
-0.0000  0.0000  0.0000 -0.0000 -190.9099 -7.9427 -59.6558 -310.7606 562.4997  0.0000  0.0000 -0.0000 224.5203 -59.6558 -423.3730
-0.0000  0.0000  0.0000 -0.0000 -32.3753 60.8453  8.5410 -294.9941 517.3148  0.0000  0.0000 -0.0000 312.8887  8.5410 -284.4188
Element 5
GP#   e_11      e_22      e_33     e_12      s_11       s_22       s_33      s_12      VM      e_1      e_2      e_3      s_1      s_2      s_3 
 0.0001 -0.0001  0.0000 -0.0001 685.2806 -596.8424 26.5315 -508.1001 1416.9296  0.0001  0.0000 -0.0001 862.2200 26.5315 -773.7818
 0.0002 -0.0001  0.0000 -0.0001 2055.7219 -8.0357 614.3059 -556.8359 2071.7724  0.0002  0.0000 -0.0001 2196.3788 614.3059 -148.6926
 0.0001 -0.0001  0.0000 -0.0000 1192.4028 -393.9340 239.5406 -77.6893 1389.5889  0.0001  0.0000 -0.0001 1196.1985 239.5406 -397.7297
 0.0002 -0.0001  0.0000 -0.0000 2149.3201 19.0744 650.5183 -167.7550 1917.2800  0.0002  0.0000 -0.0001 2162.4498 650.5183  5.9447
Element 6
GP#   e_11      e_22      e_33     e_12      s_11       s_22       s_33      s_12      VM      e_1      e_2      e_3      s_1      s_2      s_3 
 0.0000 -0.0000  0.0000 -0.0000 388.0467 -58.4857 98.8683 -382.9281 770.5775  0.0001  0.0000 -0.0000 608.0431 98.8683 -278.4821
 0.0001 -0.0000  0.0000 -0.0001 1458.9495 400.7503 557.9099 -472.3380 1283.5451  0.0001  0.0000 -0.0000 1639.1098 557.9099 220.5900
 0.0000 -0.0000  0.0000 -0.0000 267.9736 -110.9662 47.1022 -55.5401 343.4191  0.0000  0.0000 -0.0000 275.9462 47.1022 -118.9388
 0.0001 -0.0000  0.0000 -0.0000 1408.8193 378.0125 536.0495 -70.2664 969.2496  0.0001  0.0000 -0.0000 1413.5870 536.0495 373.2447
Element 7
GP#   e_11      e_22      e_33     e_12      s_11       s_22       s_33      s_12      VM      e_1      e_2      e_3      s_1      s_2      s_3 
 0.0000 -0.0000  0.0000 -0.0001 124.5669 -227.9001 -31.0000 -432.1795 808.6650  0.0001  0.0000 -0.0001 415.0639 -31.0000 -518.3971
 0.0001 -0.0000  0.0000 -0.0000 854.9934 95.6192 285.1838 -373.6641 942.0765  0.0001  0.0000 -0.0000 1008.0231 285.1838 -57.4105
 0.0000 -0.0000  0.0000 -0.0000 251.3875 -58.4354 57.8857 -215.0312 460.6487  0.0000  0.0000 -0.0000 361.4968 57.8857 -168.5447
 0.0001 -0.0000  0.0000 -0.0000 940.4712 255.5312 358.8007 -143.8254 686.3900  0.0001  0.0000 -0.0000 969.4463 358.8007 226.5561
Element 8
GP#   e_11      e_22      e_33     e_12      s_11       s_22       s_33      s_12      VM      e_1      e_2      e_3      s_1      s_2      s_3 
 0.0000 -0.0000  0.0000 -0.0000 79.7402 -156.6823 -23.0826 -304.1746 565.4423  0.0000  0.0000 -0.0000 287.8663 -23.0826 -364.8084
 0.0000 -0.0000  0.0000 -0.0000 316.8297 -35.2847 84.4635 -253.0839 536.9483  0.0000  0.0000 -0.0000 449.0704 84.4635 -167.5253
 0.0000 -0.0000  0.0000 -0.0000 69.0386 -23.5277 13.6533 -240.3553 424.0534  0.0000  0.0000 -0.0000 267.5264 13.6533 -222.0155
 0.0000 -0.0000  0.0000 -0.0000 365.4078 111.9177 143.1976 -184.2677 398.9614  0.0000  0.0000 -0.0000 462.3117 143.1976 15.0137
