********************************************************
*                      VEMLab 1.0                      *
*      http://camlab.cl/research/software/vemlab       *
*------------------------------------------------------*
*               Linear Elastostatics                   *
********************************************************

Mesh filename: cantilever_beam_t3_hsize_1.txt
Method: FEM2DT3
Date: 4-1-2018
Time: 17:53 hrs

Nodal Displacements: 
 Node      Coords         u1       u2 
1 0.00000000 -2.00000000 0.00013975 -0.00011700
2 0.00000000 -1.20607083 0.00010548 -0.00004255
3 0.00000000 -0.43474630 0.00004182 -0.00000553
4 0.00000000 0.44562862 -0.00004284 -0.00000581
5 0.00000000 1.21288158 -0.00010593 -0.00004303
6 0.00000000 2.00000000 -0.00013975 -0.00011700
7 0.94432490 -0.00188772 -0.00000003 -0.00006022
8 0.96035040 -2.00000000 -0.00008249 -0.00014812
9 0.96332368 2.00000000 0.00008332 -0.00014893
10 1.17920347 -0.99899756 -0.00004631 -0.00009720
11 1.18017246 0.99798022 0.00004634 -0.00009763
12 1.89871280 -0.00012245 0.00000007 -0.00019712
13 1.93340562 -2.00000000 -0.00027741 -0.00028381
14 1.93541593 2.00000000 0.00027783 -0.00028441
15 2.32940766 -0.99900759 -0.00015589 -0.00031416
16 2.33003666 0.99880464 0.00015605 -0.00031437
17 2.93599367 -0.00029358 0.00000003 -0.00045938
18 2.95830082 -2.00000000 -0.00045218 -0.00053207
19 2.95949636 2.00000000 0.00045246 -0.00053243
20 3.44646879 -0.99662314 -0.00024262 -0.00063525
21 3.44675312 0.99591072 0.00024260 -0.00063532
22 4.00000000 -2.00000000 -0.00059723 -0.00086766
23 4.00000000 -0.00056095 -0.00000008 -0.00081513
24 4.00000000 2.00000000 0.00059734 -0.00086765
25 4.55324688 0.99591072 0.00031027 -0.00104014
26 4.55353121 -0.99662314 -0.00031038 -0.00104027
27 5.04050364 2.00000000 0.00070879 -0.00126945
28 5.04169918 -2.00000000 -0.00070879 -0.00126995
29 5.06400633 -0.00029358 -0.00000002 -0.00124070
30 5.66996334 0.99880464 0.00036059 -0.00151463
31 5.67059234 -0.99900759 -0.00036056 -0.00151491
32 6.06458407 2.00000000 0.00078548 -0.00171289
33 6.06659438 -2.00000000 -0.00078550 -0.00171379
34 6.10128720 -0.00012245 0.00000003 -0.00170528
35 6.81982754 0.99798022 0.00039092 -0.00204942
36 6.82079653 -0.99899756 -0.00039120 -0.00204987
37 7.03667632 2.00000000 0.00082711 -0.00216289
38 7.03964960 -2.00000000 -0.00082714 -0.00216431
39 7.05567510 -0.00188772 -0.00000066 -0.00216264
40 8.00000000 -2.00000000 -0.00084275 -0.00262819
41 8.00000000 -1.20607083 -0.00049092 -0.00262359
42 8.00000000 -0.43474630 -0.00017313 -0.00262017
43 8.00000000 0.44562862 0.00017761 -0.00262014
44 8.00000000 1.21288158 0.00049401 -0.00262355
45 8.00000000 2.00000000 0.00084289 -0.00262813
Strains, Stresses, Principal Strains and Principal Stresses: 
(quantities are constant in the element)

Element 1
e_11      e_22      e_33     e_12      s_11       s_22       s_33      s_12      VM      e_1      e_2      e_3      s_1      s_2      s_3 
-0.0001  0.0000  0.0000 -0.0001 -1260.7596 -12.9200 -382.1039 -528.0979 1438.5341  0.0001  0.0000 -0.0001 180.5728 -382.1039 -1454.2524
Element 2
e_11      e_22      e_33     e_12      s_11       s_22       s_33      s_12      VM      e_1      e_2      e_3      s_1      s_2      s_3 
-0.0001  0.0000  0.0000 -0.0000 -674.8504 -56.7033 -219.4661 -135.1964 602.3458  0.0000  0.0000 -0.0001 -28.4276 -219.4661 -703.1261
Element 3
e_11      e_22      e_33     e_12      s_11       s_22       s_33      s_12      VM      e_1      e_2      e_3      s_1      s_2      s_3 
-0.0002  0.0001  0.0000 -0.0000 -2227.1716 -60.4995 -686.3013 -228.8627 1971.6296  0.0001  0.0000 -0.0002 -36.5889 -686.3013 -2251.0822
Element 4
e_11      e_22      e_33     e_12      s_11       s_22       s_33      s_12      VM      e_1      e_2      e_3      s_1      s_2      s_3 
-0.0002  0.0001  0.0000 -0.0000 -2574.2476 -72.7262 -794.0921 -290.6736 2286.2500  0.0001  0.0000 -0.0002 -39.3944 -794.0921 -2607.5793
Element 5
e_11      e_22      e_33     e_12      s_11       s_22       s_33      s_12      VM      e_1      e_2      e_3      s_1      s_2      s_3 
-0.0001  0.0001  0.0000  0.0000 -1524.8123 43.5964 -444.3648 36.0370 1391.6125  0.0001  0.0000 -0.0001 44.4240 -444.3648 -1525.6399
Element 6
e_11      e_22      e_33     e_12      s_11       s_22       s_33      s_12      VM      e_1      e_2      e_3      s_1      s_2      s_3 
-0.0001  0.0001  0.0000 -0.0000 -1563.4258 -77.6835 -492.3328 -175.2265 1362.1363  0.0001  0.0000 -0.0001 -57.2972 -492.3328 -1583.8121
Element 7
e_11      e_22      e_33     e_12      s_11       s_22       s_33      s_12      VM      e_1      e_2      e_3      s_1      s_2      s_3 
-0.0001  0.0000  0.0000 -0.0000 -1026.9135 46.7308 -294.0548 -113.6074 970.4041  0.0000  0.0000 -0.0001 58.6204 -294.0548 -1038.8031
Element 8
e_11      e_22      e_33     e_12      s_11       s_22       s_33      s_12      VM      e_1      e_2      e_3      s_1      s_2      s_3 
-0.0002  0.0001  0.0000 -0.0000 -1917.6491 -101.9935 -605.8928 -205.2537 1661.9265  0.0001  0.0000 -0.0002 -79.0794 -605.8928 -1940.5632
Element 9
e_11      e_22      e_33     e_12      s_11       s_22       s_33      s_12      VM      e_1      e_2      e_3      s_1      s_2      s_3 
-0.0001  0.0000  0.0000 -0.0000 -838.5439 47.7843 -237.2279 -156.2781 829.1344  0.0000  0.0000 -0.0001 74.5322 -237.2279 -865.2918
Element 10
e_11      e_22      e_33     e_12      s_11       s_22       s_33      s_12      VM      e_1      e_2      e_3      s_1      s_2      s_3 
-0.0000 -0.0000  0.0000 -0.0001 -5.0590 -5.6660 -3.2175 -592.0565 1025.4743  0.0001  0.0000 -0.0001 586.6940 -3.2175 -597.4191
Element 11
e_11      e_22      e_33     e_12      s_11       s_22       s_33      s_12      VM      e_1      e_2      e_3      s_1      s_2      s_3 
-0.0001  0.0000  0.0000 -0.0000 -1204.9855 -65.6081 -381.1781 -158.5550 1055.2873  0.0000  0.0000 -0.0001 -43.9551 -381.1781 -1226.6385
Element 12
e_11      e_22      e_33     e_12      s_11       s_22       s_33      s_12      VM      e_1      e_2      e_3      s_1      s_2      s_3 
-0.0001  0.0000  0.0000 -0.0000 -651.9781 48.0755 -181.1708 -177.6857 690.5511  0.0000  0.0000 -0.0001 90.5929 -181.1708 -694.4955
Element 13
e_11      e_22      e_33     e_12      s_11       s_22       s_33      s_12      VM      e_1      e_2      e_3      s_1      s_2      s_3 
-0.0000  0.0000  0.0000 -0.0000 -32.3465 -3.5798 -10.7779 -352.8341 611.6763  0.0000  0.0000 -0.0000 335.1640 -10.7779 -371.0902
Element 14
e_11      e_22      e_33     e_12      s_11       s_22       s_33      s_12      VM      e_1      e_2      e_3      s_1      s_2      s_3 
 0.0001 -0.0000  0.0000 -0.0000 691.3503 60.8288 225.6537 -137.2448 614.2535  0.0001  0.0000 -0.0000 719.9288 225.6537 32.2502
Element 15
e_11      e_22      e_33     e_12      s_11       s_22       s_33      s_12      VM      e_1      e_2      e_3      s_1      s_2      s_3 
-0.0001  0.0000  0.0000 -0.0000 -692.8608 -47.3175 -222.0535 -339.7235 825.0427  0.0000  0.0000 -0.0001 98.5191 -222.0535 -838.6973
Element 16
e_11      e_22      e_33     e_12      s_11       s_22       s_33      s_12      VM      e_1      e_2      e_3      s_1      s_2      s_3 
-0.0001  0.0000  0.0000 -0.0000 -849.6257 -63.5002 -273.9378 -146.7051 749.2757  0.0000  0.0000 -0.0001 -37.0147 -273.9378 -876.1111
Element 17
e_11      e_22      e_33     e_12      s_11       s_22       s_33      s_12      VM      e_1      e_2      e_3      s_1      s_2      s_3 
-0.0000  0.0000  0.0000 -0.0000 -465.7127 44.4687 -126.3732 -189.4387 556.7519  0.0000  0.0000 -0.0001 107.1173 -126.3732 -528.3613
Element 18
e_11      e_22      e_33     e_12      s_11       s_22       s_33      s_12      VM      e_1      e_2      e_3      s_1      s_2      s_3 
-0.0000  0.0000  0.0000 -0.0000 -274.0563 43.8571 -69.0598 -196.6343 440.3596  0.0000  0.0000 -0.0000 137.7488 -69.0598 -367.9480
Element 19
e_11      e_22      e_33     e_12      s_11       s_22       s_33      s_12      VM      e_1      e_2      e_3      s_1      s_2      s_3 
-0.0000  0.0000  0.0000 -0.0000 -0.1178  0.2862  0.0505 -331.0863 573.4585  0.0000  0.0000 -0.0000 331.1706  0.0505 -331.0022
Element 20
e_11      e_22      e_33     e_12      s_11       s_22       s_33      s_12      VM      e_1      e_2      e_3      s_1      s_2      s_3 
-0.0000  0.0000  0.0000 -0.0000 -500.5109 -70.5835 -171.3283 -141.7730 460.4051  0.0000  0.0000 -0.0000 -28.0419 -171.3283 -543.0525
Element 21
e_11      e_22      e_33     e_12      s_11       s_22       s_33      s_12      VM      e_1      e_2      e_3      s_1      s_2      s_3 
-0.0000  0.0000  0.0000 -0.0000 -138.7892 -10.6576 -44.8340 -283.6499 504.5577  0.0000  0.0000 -0.0000 216.0716 -44.8340 -365.5183
Element 22
e_11      e_22      e_33     e_12      s_11       s_22       s_33      s_12      VM      e_1      e_2      e_3      s_1      s_2      s_3 
-0.0000  0.0000  0.0000 -0.0000 -185.5188 -15.9400 -60.4377 -153.3699 306.1994  0.0000  0.0000 -0.0000 74.5177 -60.4377 -275.9766
Element 23
e_11      e_22      e_33     e_12      s_11       s_22       s_33      s_12      VM      e_1      e_2      e_3      s_1      s_2      s_3 
-0.0000  0.0000  0.0000 -0.0000 -65.5286 62.7881 -0.8221 -197.7853 360.1476  0.0000  0.0000 -0.0000 206.5609 -0.8221 -209.3013
Element 24
e_11      e_22      e_33     e_12      s_11       s_22       s_33      s_12      VM      e_1      e_2      e_3      s_1      s_2      s_3 
 0.0001 -0.0000  0.0000 -0.0001 1255.4112  4.9408 378.1056 -528.2193 1439.9109  0.0001  0.0000 -0.0001 1448.6714 378.1056 -188.3193
Element 25
e_11      e_22      e_33     e_12      s_11       s_22       s_33      s_12      VM      e_1      e_2      e_3      s_1      s_2      s_3 
 0.0002 -0.0001  0.0000 -0.0000 2224.0761 59.1378 684.9642 -227.5057 1969.5222  0.0002  0.0000 -0.0001 2247.7255 684.9642 35.4884
Element 26
e_11      e_22      e_33     e_12      s_11       s_22       s_33      s_12      VM      e_1      e_2      e_3      s_1      s_2      s_3 
 0.0002 -0.0001  0.0000 -0.0000 2575.0853 70.8960 793.7944 -292.7363 2289.1822  0.0002  0.0000 -0.0001 2608.8505 793.7944 37.1308
Element 27
e_11      e_22      e_33     e_12      s_11       s_22       s_33      s_12      VM      e_1      e_2      e_3      s_1      s_2      s_3 
 0.0001 -0.0001  0.0000  0.0000 1534.6917 -42.5069 447.6554 37.0167 1399.5863  0.0001  0.0000 -0.0001 1535.5600 447.6554 -43.3752
Element 28
e_11      e_22      e_33     e_12      s_11       s_22       s_33      s_12      VM      e_1      e_2      e_3      s_1      s_2      s_3 
 0.0000 -0.0000  0.0000 -0.0000 -20.3877 -48.0842 -20.5416 -373.3410 647.2351  0.0000  0.0000 -0.0001 339.3618 -20.5416 -407.8336
Element 29
e_11      e_22      e_33     e_12      s_11       s_22       s_33      s_12      VM      e_1      e_2      e_3      s_1      s_2      s_3 
 0.0000  0.0000  0.0000 -0.0000 19.2849 44.4874 19.1317 -373.2046 646.9035  0.0001  0.0000 -0.0000 405.3035 19.1317 -341.5312
Element 30
e_11      e_22      e_33     e_12      s_11       s_22       s_33      s_12      VM      e_1      e_2      e_3      s_1      s_2      s_3 
-0.0001  0.0000  0.0000 -0.0000 -1075.7526 -67.2174 -342.8910 -282.9569 1027.2811  0.0000  0.0000 -0.0001  6.7455 -342.8910 -1149.7154
Element 31
e_11      e_22      e_33     e_12      s_11       s_22       s_33      s_12      VM      e_1      e_2      e_3      s_1      s_2      s_3 
 0.0001 -0.0000  0.0000 -0.0000 651.2810 -48.3453 180.8807 -177.9160 690.3704  0.0001  0.0000 -0.0000 693.9259 180.8807 -90.9902
Element 32
e_11      e_22      e_33     e_12      s_11       s_22       s_33      s_12      VM      e_1      e_2      e_3      s_1      s_2      s_3 
 0.0001 -0.0000  0.0000 -0.0000 692.3714 47.5321 221.9711 -339.8550 824.7822  0.0001  0.0000 -0.0000 838.4129 221.9711 -98.5094
Element 33
e_11      e_22      e_33     e_12      s_11       s_22       s_33      s_12      VM      e_1      e_2      e_3      s_1      s_2      s_3 
-0.0000 -0.0000  0.0000 -0.0000 -1.2290 -2.8150 -1.2132 -336.6938 583.1729  0.0000  0.0000 -0.0000 334.6727 -1.2132 -338.7167
Element 34
e_11      e_22      e_33     e_12      s_11       s_22       s_33      s_12      VM      e_1      e_2      e_3      s_1      s_2      s_3 
-0.0000  0.0000  0.0000 -0.0000 -301.2730 -19.6578 -96.2792 -356.2210 666.5436  0.0000  0.0000 -0.0001 222.5753 -96.2792 -543.5061
Element 35
e_11      e_22      e_33     e_12      s_11       s_22       s_33      s_12      VM      e_1      e_2      e_3      s_1      s_2      s_3 
 0.0000 -0.0000  0.0000 -0.0000 33.2345  3.9760 11.1631 -352.7920 611.6240  0.0000  0.0000 -0.0000 371.7004 11.1631 -334.4899
Element 36
e_11      e_22      e_33     e_12      s_11       s_22       s_33      s_12      VM      e_1      e_2      e_3      s_1      s_2      s_3 
-0.0000  0.0000  0.0000 -0.0000  1.1330  2.6986  1.1495 -336.8784 583.4926  0.0000  0.0000 -0.0000 338.7951  1.1495 -334.9635
Element 37
e_11      e_22      e_33     e_12      s_11       s_22       s_33      s_12      VM      e_1      e_2      e_3      s_1      s_2      s_3 
 0.0001 -0.0001  0.0000 -0.0000 1563.5432 78.1039 492.4941 -175.3653 1361.9679  0.0001  0.0000 -0.0001 1583.9654 492.4941 57.6817
Element 38
e_11      e_22      e_33     e_12      s_11       s_22       s_33      s_12      VM      e_1      e_2      e_3      s_1      s_2      s_3 
 0.0001 -0.0000  0.0000 -0.0000 1027.0016 -47.2750 293.9180 -112.5642 970.5459  0.0001  0.0000 -0.0000 1038.6695 293.9180 -58.9429
Element 39
e_11      e_22      e_33     e_12      s_11       s_22       s_33      s_12      VM      e_1      e_2      e_3      s_1      s_2      s_3 
 0.0001 -0.0000  0.0000 -0.0000 1075.6587 65.4454 342.3312 -282.6104 1028.1482  0.0001  0.0000 -0.0000 1149.3450 342.3312 -8.2409
Element 40
e_11      e_22      e_33     e_12      s_11       s_22       s_33      s_12      VM      e_1      e_2      e_3      s_1      s_2      s_3 
 0.0002 -0.0001  0.0000 -0.0000 1917.4972 101.6178 605.7345 -205.1987 1662.0638  0.0002  0.0000 -0.0001 1940.3964 605.7345 78.7186
Element 41
e_11      e_22      e_33     e_12      s_11       s_22       s_33      s_12      VM      e_1      e_2      e_3      s_1      s_2      s_3 
 0.0001 -0.0000  0.0000 -0.0000 838.2012 -47.9065 237.0884 -156.0665 828.8203  0.0001  0.0000 -0.0000 864.8850 237.0884 -74.5904
Element 42
e_11      e_22      e_33     e_12      s_11       s_22       s_33      s_12      VM      e_1      e_2      e_3      s_1      s_2      s_3 
-0.0000 -0.0000  0.0000 -0.0000 -30.4646 -70.0776 -30.1627 -349.3755 606.4411  0.0000  0.0000 -0.0000 299.6653 -30.1627 -400.2075
Element 43
e_11      e_22      e_33     e_12      s_11       s_22       s_33      s_12      VM      e_1      e_2      e_3      s_1      s_2      s_3 
-0.0000  0.0000  0.0000 -0.0000 29.5476 69.9509 29.8496 -349.3226 606.3821  0.0000  0.0000 -0.0000 399.6555 29.8496 -300.1570
Element 44
e_11      e_22      e_33     e_12      s_11       s_22       s_33      s_12      VM      e_1      e_2      e_3      s_1      s_2      s_3 
-0.0000 -0.0000  0.0000 -0.0000 -47.5147 -110.5095 -47.4072 -371.8232 647.0954  0.0000  0.0000 -0.0001 294.1428 -47.4072 -452.1669
Element 45
e_11      e_22      e_33     e_12      s_11       s_22       s_33      s_12      VM      e_1      e_2      e_3      s_1      s_2      s_3 
 0.0001 -0.0000  0.0000 -0.0000 881.8502 56.8272 281.6032 -323.0479 926.7262  0.0001  0.0000 -0.0000 993.2906 281.6032 -54.6132
Element 46
e_11      e_22      e_33     e_12      s_11       s_22       s_33      s_12      VM      e_1      e_2      e_3      s_1      s_2      s_3 
-0.0001  0.0000  0.0000 -0.0000 -882.4958 -57.1422 -281.8914 -322.9118 926.8438  0.0000  0.0000 -0.0001 54.1793 -281.8914 -993.8172
Element 47
e_11      e_22      e_33     e_12      s_11       s_22       s_33      s_12      VM      e_1      e_2      e_3      s_1      s_2      s_3 
-0.0000  0.0000  0.0000 -0.0000 46.8683 109.7175 46.9757 -371.9042 647.2106  0.0001  0.0000 -0.0000 451.5224 46.9757 -294.9366
Element 48
e_11      e_22      e_33     e_12      s_11       s_22       s_33      s_12      VM      e_1      e_2      e_3      s_1      s_2      s_3 
 0.0001 -0.0000  0.0000 -0.0000 1205.4034 66.1686 381.4716 -158.6298 1055.2525  0.0001  0.0000 -0.0000 1227.0790 381.4716 44.4931
Element 49
e_11      e_22      e_33     e_12      s_11       s_22       s_33      s_12      VM      e_1      e_2      e_3      s_1      s_2      s_3 
 0.0001 -0.0000  0.0000 -0.0000 850.3879 63.8693 274.2772 -146.6993 749.6368  0.0001  0.0000 -0.0000 876.8590 274.2772 37.3983
Element 50
e_11      e_22      e_33     e_12      s_11       s_22       s_33      s_12      VM      e_1      e_2      e_3      s_1      s_2      s_3 
 0.0000 -0.0000  0.0000 -0.0000 465.3045 -44.7358 126.1706 -189.7792 556.9824  0.0001  0.0000 -0.0000 528.1703 126.1706 -107.6015
Element 51
e_11      e_22      e_33     e_12      s_11       s_22       s_33      s_12      VM      e_1      e_2      e_3      s_1      s_2      s_3 
 0.0000 -0.0000  0.0000 -0.0000 274.2233 -44.0931 69.0391 -196.9985 441.0642  0.0000  0.0000 -0.0000 368.3234 69.0391 -138.1932
Element 52
e_11      e_22      e_33     e_12      s_11       s_22       s_33      s_12      VM      e_1      e_2      e_3      s_1      s_2      s_3 
 0.0000 -0.0000  0.0000 -0.0000 301.1741 19.5538 96.2184 -356.3367 666.7268  0.0001  0.0000 -0.0000 543.5132 96.2184 -222.7852
Element 53
e_11      e_22      e_33     e_12      s_11       s_22       s_33      s_12      VM      e_1      e_2      e_3      s_1      s_2      s_3 
-0.0000  0.0000  0.0000 -0.0000 -499.7579 -32.7012 -159.7377 -348.9321 734.9883  0.0000  0.0000 -0.0001 153.6384 -159.7377 -686.0975
Element 54
e_11      e_22      e_33     e_12      s_11       s_22       s_33      s_12      VM      e_1      e_2      e_3      s_1      s_2      s_3 
-0.0000  0.0000  0.0000 -0.0000 14.5652 34.1336 14.6096 -334.1941 579.1711  0.0000  0.0000 -0.0000 358.6867 14.6096 -309.9879
Element 55
e_11      e_22      e_33     e_12      s_11       s_22       s_33      s_12      VM      e_1      e_2      e_3      s_1      s_2      s_3 
-0.0000  0.0000  0.0000 -0.0000 21.2976 50.3839 21.5045 -340.1948 589.9470  0.0000  0.0000 -0.0000 376.3462 21.5045 -304.6647
Element 56
e_11      e_22      e_33     e_12      s_11       s_22       s_33      s_12      VM      e_1      e_2      e_3      s_1      s_2      s_3 
-0.0000 -0.0000  0.0000 -0.0000 -21.9245 -50.4680 -21.7177 -340.4155 590.3125  0.0000  0.0000 -0.0000 304.5183 -21.7177 -376.9108
Element 57
e_11      e_22      e_33     e_12      s_11       s_22       s_33      s_12      VM      e_1      e_2      e_3      s_1      s_2      s_3 
 0.0000 -0.0000  0.0000 -0.0000 499.7321 32.8462 159.7735 -348.9573 734.9463  0.0001  0.0000 -0.0000 686.1306 159.7735 -153.5523
Element 58
e_11      e_22      e_33     e_12      s_11       s_22       s_33      s_12      VM      e_1      e_2      e_3      s_1      s_2      s_3 
-0.0000 -0.0000  0.0000 -0.0000 -14.7079 -34.1705 -14.6635 -334.4077 579.5387  0.0000  0.0000 -0.0000 310.1100 -14.6635 -358.9885
Element 59
e_11      e_22      e_33     e_12      s_11       s_22       s_33      s_12      VM      e_1      e_2      e_3      s_1      s_2      s_3 
 0.0000 -0.0000  0.0000 -0.0000 501.0024 71.1524 171.6465 -141.8193 460.4463  0.0000  0.0000 -0.0000 543.5759 171.6465 28.5790
Element 60
e_11      e_22      e_33     e_12      s_11       s_22       s_33      s_12      VM      e_1      e_2      e_3      s_1      s_2      s_3 
 0.0000 -0.0000  0.0000 -0.0000 139.4472 10.9805 45.1283 -281.9179 501.7130  0.0000  0.0000 -0.0000 364.3567 45.1283 -213.9290
Element 61
e_11      e_22      e_33     e_12      s_11       s_22       s_33      s_12      VM      e_1      e_2      e_3      s_1      s_2      s_3 
 0.0000 -0.0000  0.0000 -0.0000 186.9512 16.0895 60.9122 -152.7552 305.8542  0.0000  0.0000 -0.0000 276.5420 60.9122 -73.5013
Element 62
e_11      e_22      e_33     e_12      s_11       s_22       s_33      s_12      VM      e_1      e_2      e_3      s_1      s_2      s_3 
 0.0000 -0.0000  0.0000 -0.0000 65.4648 -63.0591  0.7217 -198.0093 360.5718  0.0000  0.0000 -0.0000 209.3789  0.7217 -206.9732
