********************************************************
*                      VEMLab 2.2.1                      *
*      http://camlab.cl/research/software/vemlab       *
*------------------------------------------------------*
*               Linear Elastostatics                   *
********************************************************

Mesh filename: element_transition_test2_q4.txt
Method: FEM2DQ4
Date: 28-7-2019
Time: 18:26 hrs

Nodal Displacements: 
 Node      Coords         u1       u2 
1 40.00000000 0.00000000 -0.01028020 -0.05851552
2 40.00000000 1.00000000 -0.00818832 -0.05850532
3 40.00000000 2.00000000 -0.00612057 -0.05849320
4 40.00000000 3.00000000 -0.00407051 -0.05848220
5 40.00000000 4.00000000 -0.00203228 -0.05847467
6 40.00000000 5.00000000 -0.00000000 -0.05847200
7 40.00000000 6.00000000 0.00203228 -0.05847467
8 40.00000000 7.00000000 0.00407051 -0.05848220
9 32.50000000 0.00000000 -0.00993718 -0.04290069
10 32.50000000 1.00000000 -0.00791596 -0.04287915
11 32.50000000 2.00000000 -0.00591632 -0.04286312
12 40.00000000 8.00000000 0.00612057 -0.05849320
13 32.50000000 3.00000000 -0.00393420 -0.04285219
14 32.50000000 4.00000000 -0.00196407 -0.04284586
15 40.00000000 9.00000000 0.00818832 -0.05850532
16 32.50000000 4.99999999 -0.00000000 -0.04284379
17 32.50000000 5.99999998 0.00196407 -0.04284586
18 40.00000000 10.00000000 0.01028020 -0.05851552
19 32.50000000 7.00000000 0.00393420 -0.04285219
20 32.50000000 8.00000000 0.00591632 -0.04286312
21 32.50000000 9.00000000 0.00791596 -0.04287915
22 32.50000000 10.00000000 0.00993718 -0.04290069
23 25.00000000 0.00000000 -0.00894890 -0.02831974
24 25.00000000 1.00000000 -0.00712527 -0.02827203
25 25.00000000 2.00000000 -0.00532606 -0.02823592
26 25.00000000 3.00000000 -0.00354251 -0.02821038
27 25.00000000 4.00000001 -0.00176883 -0.02819512
28 25.00000000 5.00000000 0.00000000 -0.02819004
29 25.00000000 5.99999999 0.00176883 -0.02819512
30 25.00000001 7.00000000 0.00354251 -0.02821038
31 25.00000001 8.00000000 0.00532606 -0.02823592
32 25.00000001 9.00000000 0.00712527 -0.02827203
33 25.00000000 10.00000000 0.00894890 -0.02831974
34 17.50000000 0.00000000 -0.00728433 -0.01573051
35 17.49999998 1.00000000 -0.00580858 -0.01565825
36 17.49999998 2.00000000 -0.00434025 -0.01559970
37 17.49999998 3.00000000 -0.00288477 -0.01555696
38 17.49999998 4.00000002 -0.00143961 -0.01553098
39 17.49999999 5.00000001 0.00000000 -0.01552226
40 17.49999999 6.00000000 0.00143961 -0.01553098
41 17.49999999 7.00000000 0.00288477 -0.01555696
42 17.50000000 8.00000000 0.00434025 -0.01559970
43 17.50000000 9.00000000 0.00580858 -0.01565825
44 17.50000000 10.00000000 0.00728433 -0.01573051
45 10.00000000 0.00000000 -0.00504814 -0.00605633
46 10.00000000 1.00000000 -0.00393878 -0.00596340
47 10.00000000 2.00000000 -0.00290793 -0.00588778
48 10.00000000 3.00000000 -0.00191872 -0.00583235
49 10.00000000 4.00000000 -0.00095371 -0.00579868
50 10.00000000 5.00000000 -0.00000000 -0.00578739
51 10.00000000 6.00000000 0.00095371 -0.00579868
52 10.00000000 7.00000000 0.00191872 -0.00583235
53 9.00000000 0.00000000 -0.00457158 -0.00505960
54 9.00000000 1.00000000 -0.00360702 -0.00493921
55 10.00000000 8.00000000 0.00290793 -0.00588778
56 9.00000000 2.00000001 -0.00266402 -0.00486009
57 9.00000000 3.00000000 -0.00175740 -0.00480458
58 9.00000000 4.00000000 -0.00087321 -0.00477107
59 10.00000000 9.00000000 0.00393878 -0.00596340
60 9.00000000 5.00000000 -0.00000000 -0.00475986
61 9.00000000 6.00000008 0.00087321 -0.00477107
62 10.00000000 10.00000000 0.00504814 -0.00605633
63 9.00000000 7.00000000 0.00175740 -0.00480458
64 8.00000000 0.00000000 -0.00411040 -0.00414356
65 9.00000000 8.00000000 0.00266402 -0.00486009
66 8.00000000 1.00000000 -0.00324789 -0.00402113
67 8.00000000 2.00000001 -0.00240546 -0.00392983
68 8.00000000 3.00000000 -0.00158709 -0.00386857
69 8.00000000 4.00000000 -0.00078850 -0.00383255
70 9.00000000 9.00000036 0.00360702 -0.00493921
71 8.00000000 5.00000000 -0.00000000 -0.00382062
72 8.00000000 6.00000007 0.00078850 -0.00383255
73 9.00000000 10.00000000 0.00457158 -0.00505960
74 8.00000000 7.00000000 0.00158709 -0.00386857
75 8.00000000 8.00000000 0.00240546 -0.00392983
76 7.00000000 0.00000000 -0.00364477 -0.00331825
77 7.00000000 1.00000000 -0.00287694 -0.00319155
78 7.00000000 2.00000001 -0.00213160 -0.00309463
79 7.00000000 3.00000000 -0.00140706 -0.00302710
80 7.00000000 4.00000000 -0.00069900 -0.00298747
81 8.00000000 9.00000033 0.00324789 -0.00402113
82 7.00000000 5.00000000 -0.00000000 -0.00297437
83 8.00000000 10.00000000 0.00411040 -0.00414356
84 7.00000000 6.00000006 0.00069900 -0.00298747
85 7.00000000 7.00000000 0.00140706 -0.00302710
86 7.00000000 8.00000000 0.00213160 -0.00309463
87 6.00000000 0.00000000 -0.00316835 -0.00258469
88 6.00000000 1.00000000 -0.00249541 -0.00245436
89 6.00000000 2.00000001 -0.00184646 -0.00235304
90 6.00000000 3.00000000 -0.00121789 -0.00228107
91 7.00000000 9.00000029 0.00287694 -0.00319155
92 6.00000000 4.00000000 -0.00060477 -0.00223819
93 6.00000000 5.00000000 -0.00000000 -0.00222397
94 7.00000000 10.00000000 0.00364477 -0.00331825
95 6.00000000 6.00000005 0.00060477 -0.00223819
96 6.00000000 7.00000000 0.00121789 -0.00228107
97 6.00000000 8.00000000 0.00184646 -0.00235304
98 5.00000000 0.00000000 -0.00267983 -0.00194634
99 5.00000000 1.00000000 -0.00210313 -0.00181234
100 5.00000000 2.00000001 -0.00155126 -0.00170732
101 5.00000000 3.00000000 -0.00102082 -0.00163194
102 6.00000000 9.00000024 0.00249541 -0.00245436
103 5.00000000 4.00000000 -0.00050622 -0.00158674
104 5.00000000 5.00000000 -0.00000000 -0.00157170
105 6.00000000 10.00000000 0.00316835 -0.00258469
106 5.00000000 6.00000004 0.00050622 -0.00158674
107 5.00000000 7.00000000 0.00102082 -0.00163194
108 5.00000000 8.00000000 0.00155126 -0.00170732
109 4.00000000 0.00000000 -0.00217960 -0.00140516
110 4.00000000 1.00000000 -0.00169974 -0.00126775
111 4.00000000 2.00000000 -0.00124621 -0.00115947
112 4.00000000 3.00000000 -0.00081661 -0.00108203
113 5.00000000 9.00000018 0.00210313 -0.00181234
114 4.00000000 4.00000000 -0.00040403 -0.00103593
115 4.00000000 5.00000000 -0.00000000 -0.00102072
116 5.00000000 10.00000000 0.00267983 -0.00194634
117 4.00000000 6.00000003 0.00040403 -0.00103593
118 4.00000000 7.00000000 0.00081661 -0.00108203
119 4.00000000 8.00000000 0.00124621 -0.00115947
120 3.00000000 0.00000000 -0.00166892 -0.00096120
121 3.00000000 1.00000000 -0.00128439 -0.00082032
122 3.00000000 2.00000000 -0.00093146 -0.00071055
123 4.00000000 9.00000013 0.00169974 -0.00126775
124 3.00000000 3.00000000 -0.00060666 -0.00063412
125 3.00000000 4.00000000 -0.00029950 -0.00059054
126 3.00000000 5.00000000 -0.00000000 -0.00057642
127 4.00000000 10.00000000 0.00217960 -0.00140516
128 3.00000000 6.00000002 0.00029950 -0.00059054
129 3.00000000 7.00000000 0.00060666 -0.00063412
130 3.00000000 8.00000000 0.00093146 -0.00071055
131 2.00000000 0.00000000 -0.00114916 -0.00060708
132 2.00000000 1.00000000 -0.00085507 -0.00046620
133 2.00000000 2.00000000 -0.00060896 -0.00035893
134 3.00000000 9.00000008 0.00128439 -0.00082032
135 2.00000000 3.00000000 -0.00039561 -0.00029400
136 2.00000000 4.00000000 -0.00019509 -0.00025908
137 3.00000000 10.00000000 0.00166892 -0.00096120
138 2.00000000 5.00000000 0.00000000 -0.00024805
139 2.00000000 6.00000001 0.00019509 -0.00025908
140 2.00000000 7.00000000 0.00039561 -0.00029400
141 2.00000000 8.00000000 0.00060896 -0.00035893
142 1.00000000 0.00000000 -0.00061214 -0.00033240
143 1.00000000 1.00000000 -0.00040832 -0.00018189
144 1.00000000 2.00000000 -0.00029358 -0.00011204
145 2.00000000 9.00000004 0.00085507 -0.00046620
146 1.00000000 3.00000000 -0.00019082 -0.00007482
147 1.00000000 4.00000000 -0.00009431 -0.00005573
148 2.00000000 10.00000000 0.00114916 -0.00060708
149 1.00000000 5.00000000 0.00000000 -0.00004982
150 1.00000000 6.00000000 0.00009431 -0.00005573
151 1.00000000 7.00000000 0.00019082 -0.00007482
152 1.00000000 8.00000000 0.00029358 -0.00011204
153 0.00000000 0.00000000 0.00000000 0.00000000
154 0.00000000 1.00000000 0.00000000 0.00000000
155 1.00000000 9.00000001 0.00040832 -0.00018189
156 0.00000000 2.00000000 0.00000000 0.00000000
157 0.00000000 3.00000000 0.00000000 0.00000000
158 0.00000000 4.00000000 0.00000000 0.00000000
159 1.00000000 10.00000000 0.00061214 -0.00033240
160 0.00000000 5.00000000 0.00000000 0.00000000
161 0.00000000 6.00000000 0.00000000 0.00000000
162 0.00000000 7.00000000 0.00000000 0.00000000
163 0.00000000 8.00000000 0.00000000 0.00000000
164 0.00000000 9.00000000 0.00000000 0.00000000
165 0.00000000 10.00000000 0.00000000 0.00000000
Strains, Stresses, Principal Strains and Principal Stresses: 
(at Gauss points --- 2x2 quadrature rule)

Element 1
GP#   e_11      e_22      e_33     e_12      s_11       s_22       s_33      s_12      VM      e_1      e_2      e_3      s_1      s_2      s_3 
1  0.0005 -0.0000 -0.0001 -0.0001 101.9646 23.9097  0.0000 -13.7809 95.3952  0.0005 -0.0000 -0.0001 104.3262 21.5481  0.0000
2  0.0006 -0.0000 -0.0002 -0.0001 129.1208 32.0566  0.0000 -20.7998 121.8956  0.0006 -0.0001 -0.0002 133.3902 27.7872  0.0000
3  0.0005 -0.0001 -0.0001 -0.0000 95.9484  3.8558  0.0000 -4.2762 94.3709  0.0005 -0.0001 -0.0001 96.1465  3.6576  0.0000
4  0.0006 -0.0001 -0.0001 -0.0001 123.1046 12.0026  0.0000 -11.2951 119.1804  0.0006 -0.0001 -0.0001 124.2413 10.8659  0.0000
Element 2
GP#   e_11      e_22      e_33     e_12      s_11       s_22       s_33      s_12      VM      e_1      e_2      e_3      s_1      s_2      s_3 
1  0.0003 -0.0000 -0.0001 -0.0001 72.3219 18.5971  0.0000 -8.2832 66.6121  0.0003 -0.0000 -0.0001 73.5700 17.3490  0.0000
2  0.0004 -0.0000 -0.0001 -0.0001 87.6094 23.1833  0.0000 -11.5402 81.1254  0.0004 -0.0000 -0.0001 89.6141 21.1786  0.0000
3  0.0003 -0.0001 -0.0001 -0.0000 69.5303  9.2915  0.0000 -2.9326 65.5786  0.0003 -0.0001 -0.0001 69.6727  9.1491  0.0000
4  0.0004 -0.0001 -0.0001 -0.0000 84.8177 13.8778  0.0000 -6.1896 79.5267  0.0004 -0.0001 -0.0001 85.3537 13.3418  0.0000
Element 3
GP#   e_11      e_22      e_33     e_12      s_11       s_22       s_33      s_12      VM      e_1      e_2      e_3      s_1      s_2      s_3 
1  0.0002 -0.0000 -0.0001 -0.0000 48.5027 12.8989  0.0000 -4.9246 44.3397  0.0002 -0.0000 -0.0001 49.1712 12.2303  0.0000
2  0.0003 -0.0000 -0.0001 -0.0000 62.1927 17.0059  0.0000 -6.6604 56.8557  0.0003 -0.0000 -0.0001 63.1539 16.0446  0.0000
3  0.0002 -0.0000 -0.0001 -0.0000 47.0148  7.9394  0.0000 -0.1331 43.5914  0.0002 -0.0000 -0.0001 47.0153  7.9389  0.0000
4  0.0003 -0.0000 -0.0001 -0.0000 60.7048 12.0464  0.0000 -1.8689 55.7619  0.0003 -0.0000 -0.0001 60.7765 11.9747  0.0000
Element 4
GP#   e_11      e_22      e_33     e_12      s_11       s_22       s_33      s_12      VM      e_1      e_2      e_3      s_1      s_2      s_3 
1  0.0001 -0.0000 -0.0000 -0.0000 26.1918  7.0106  0.0000 -3.1800 24.1221  0.0001 -0.0000 -0.0000 26.7053  6.4971  0.0000
2  0.0002 -0.0000 -0.0000 -0.0000 39.0505 10.8682  0.0000 -4.0700 35.6138  0.0002 -0.0000 -0.0000 39.6265 10.2922  0.0000
3  0.0001 -0.0000 -0.0000  0.0000 25.4290  4.4678  0.0000  1.3206 23.6266  0.0001 -0.0000 -0.0000 25.5118  4.3849  0.0000
4  0.0002 -0.0000 -0.0000  0.0000 38.2877  8.3254  0.0000  0.4306 34.8863  0.0002 -0.0000 -0.0000 38.2939  8.3192  0.0000
Element 5
GP#   e_11      e_22      e_33     e_12      s_11       s_22       s_33      s_12      VM      e_1      e_2      e_3      s_1      s_2      s_3 
1  0.0000 -0.0000 -0.0000 -0.0000  4.5129  1.0916  0.0000 -2.5154  5.9676  0.0000 -0.0000 -0.0000  5.8442  0.0000 -0.2396
2  0.0001 -0.0000 -0.0000 -0.0000 17.0786  4.8614  0.0000 -2.7909 15.9892  0.0001 -0.0000 -0.0000 17.6860  4.2540  0.0000
3  0.0000 -0.0000 -0.0000  0.0000  4.2767  0.3044  0.0000  1.8826  5.2644  0.0000 -0.0000 -0.0000  5.0272  0.0000 -0.4461
4  0.0001 -0.0000 -0.0000  0.0000 16.8424  4.0741  0.0000  1.6071 15.4724  0.0001 -0.0000 -0.0000 17.0416  3.8749  0.0000
Element 6
GP#   e_11      e_22      e_33     e_12      s_11       s_22       s_33      s_12      VM      e_1      e_2      e_3      s_1      s_2      s_3 
1 -0.0001  0.0000  0.0000 -0.0000 -17.0786 -4.8614  0.0000 -2.7909 15.9892  0.0000  0.0000 -0.0001  0.0000 -4.2540 -17.6860
2 -0.0000  0.0000  0.0000 -0.0000 -4.5129 -1.0916  0.0000 -2.5154  5.9676  0.0000  0.0000 -0.0000  0.2396  0.0000 -5.8442
3 -0.0001  0.0000  0.0000  0.0000 -16.8424 -4.0741  0.0000  1.6071 15.4724  0.0000  0.0000 -0.0001  0.0000 -3.8749 -17.0416
4 -0.0000  0.0000  0.0000  0.0000 -4.2767 -0.3044  0.0000  1.8826  5.2644  0.0000  0.0000 -0.0000  0.4461  0.0000 -5.0272
Element 7
GP#   e_11      e_22      e_33     e_12      s_11       s_22       s_33      s_12      VM      e_1      e_2      e_3      s_1      s_2      s_3 
1 -0.0002  0.0000  0.0000 -0.0000 -39.0505 -10.8682  0.0000 -4.0700 35.6138  0.0000  0.0000 -0.0002  0.0000 -10.2922 -39.6265
2 -0.0001  0.0000  0.0000 -0.0000 -26.1918 -7.0106  0.0000 -3.1800 24.1221  0.0000  0.0000 -0.0001  0.0000 -6.4971 -26.7053
3 -0.0002  0.0000  0.0000  0.0000 -38.2877 -8.3254  0.0000  0.4306 34.8863  0.0000  0.0000 -0.0002  0.0000 -8.3192 -38.2939
4 -0.0001  0.0000  0.0000  0.0000 -25.4290 -4.4678  0.0000  1.3206 23.6266  0.0000  0.0000 -0.0001  0.0000 -4.3849 -25.5118
Element 8
GP#   e_11      e_22      e_33     e_12      s_11       s_22       s_33      s_12      VM      e_1      e_2      e_3      s_1      s_2      s_3 
1 -0.0003  0.0000  0.0001 -0.0000 -62.1927 -17.0059  0.0000 -6.6604 56.8557  0.0001  0.0000 -0.0003  0.0000 -16.0446 -63.1539
2 -0.0002  0.0000  0.0001 -0.0000 -48.5027 -12.8989  0.0000 -4.9246 44.3397  0.0001  0.0000 -0.0002  0.0000 -12.2303 -49.1712
3 -0.0003  0.0000  0.0001 -0.0000 -60.7048 -12.0464  0.0000 -1.8689 55.7619  0.0001  0.0000 -0.0003  0.0000 -11.9747 -60.7765
4 -0.0002  0.0000  0.0001 -0.0000 -47.0148 -7.9394  0.0000 -0.1331 43.5914  0.0001  0.0000 -0.0002  0.0000 -7.9389 -47.0153
Element 9
GP#   e_11      e_22      e_33     e_12      s_11       s_22       s_33      s_12      VM      e_1      e_2      e_3      s_1      s_2      s_3 
1 -0.0004  0.0000  0.0001 -0.0001 -87.6094 -23.1833  0.0000 -11.5402 81.1254  0.0001  0.0000 -0.0004  0.0000 -21.1786 -89.6141
2 -0.0003  0.0000  0.0001 -0.0001 -72.3219 -18.5971  0.0000 -8.2832 66.6121  0.0001  0.0000 -0.0003  0.0000 -17.3490 -73.5700
3 -0.0004  0.0001  0.0001 -0.0000 -84.8177 -13.8778  0.0000 -6.1896 79.5267  0.0001  0.0001 -0.0004  0.0000 -13.3418 -85.3537
4 -0.0003  0.0001  0.0001 -0.0000 -69.5303 -9.2915  0.0000 -2.9326 65.5786  0.0001  0.0001 -0.0003  0.0000 -9.1491 -69.6727
Element 10
GP#   e_11      e_22      e_33     e_12      s_11       s_22       s_33      s_12      VM      e_1      e_2      e_3      s_1      s_2      s_3 
1 -0.0006  0.0000  0.0002 -0.0001 -129.1208 -32.0566  0.0000 -20.7998 121.8956  0.0002  0.0001 -0.0006  0.0000 -27.7872 -133.3902
2 -0.0005  0.0000  0.0001 -0.0001 -101.9646 -23.9097  0.0000 -13.7809 95.3952  0.0001  0.0000 -0.0005  0.0000 -21.5481 -104.3262
3 -0.0006  0.0001  0.0001 -0.0001 -123.1046 -12.0026  0.0000 -11.2951 119.1804  0.0001  0.0001 -0.0006  0.0000 -10.8659 -124.2413
4 -0.0005  0.0001  0.0001 -0.0000 -95.9484 -3.8558  0.0000 -4.2762 94.3709  0.0001  0.0001 -0.0005  0.0000 -3.6576 -96.1465
Element 11
GP#   e_11      e_22      e_33     e_12      s_11       s_22       s_33      s_12      VM      e_1      e_2      e_3      s_1      s_2      s_3 
1  0.0005 -0.0001 -0.0001 -0.0000 97.2196 -2.0151  0.0000 -4.7959 98.5932  0.0005 -0.0001 -0.0001 97.4509  0.0000 -2.2464
2  0.0005 -0.0001 -0.0001 -0.0000 109.2472  1.5931  0.0000 -4.3469 108.7204  0.0005 -0.0001 -0.0001 109.4224  1.4179  0.0000
3  0.0005 -0.0001 -0.0001 -0.0000 97.6045 -0.7320  0.0000 -0.5863 97.9779  0.0005 -0.0001 -0.0001 97.6080  0.0000 -0.7355
4  0.0005 -0.0001 -0.0001 -0.0000 109.6321  2.8762  0.0000 -0.1372 108.2229  0.0005 -0.0001 -0.0001 109.6323  2.8760  0.0000
Element 12
GP#   e_11      e_22      e_33     e_12      s_11       s_22       s_33      s_12      VM      e_1      e_2      e_3      s_1      s_2      s_3 
1  0.0003 -0.0001 -0.0001 -0.0001 73.8052  5.8134  0.0000 -9.0697 72.7923  0.0004 -0.0001 -0.0001 74.9943  4.6244  0.0000
2  0.0004 -0.0001 -0.0001 -0.0001 91.3075 11.0641  0.0000 -10.8151 88.3184  0.0004 -0.0001 -0.0001 92.7396  9.6320  0.0000
3  0.0003 -0.0001 -0.0001 -0.0000 72.3091  0.8264  0.0000 -2.9439 72.0800  0.0003 -0.0001 -0.0001 72.4301  0.7054  0.0000
4  0.0004 -0.0001 -0.0001 -0.0000 89.8114  6.0771  0.0000 -4.6893 87.3109  0.0004 -0.0001 -0.0001 90.0732  5.8153  0.0000
Element 13
GP#   e_11      e_22      e_33     e_12      s_11       s_22       s_33      s_12      VM      e_1      e_2      e_3      s_1      s_2      s_3 
1  0.0002 -0.0000 -0.0001 -0.0000 49.6698  5.8544  0.0000 -7.9887 49.0106  0.0002 -0.0001 -0.0001 51.0809  4.4433  0.0000
2  0.0003 -0.0000 -0.0001 -0.0001 64.4057 10.2751  0.0000 -9.2807 62.0507  0.0003 -0.0001 -0.0001 65.9527  8.7282  0.0000
3  0.0002 -0.0001 -0.0001 -0.0000 48.5624  2.1629  0.0000 -2.8311 47.7702  0.0002 -0.0001 -0.0001 48.7345  1.9908  0.0000
4  0.0003 -0.0001 -0.0001 -0.0000 63.2983  6.5837  0.0000 -4.1231 60.6983  0.0003 -0.0001 -0.0001 63.5965  6.2855  0.0000
Element 14
GP#   e_11      e_22      e_33     e_12      s_11       s_22       s_33      s_12      VM      e_1      e_2      e_3      s_1      s_2      s_3 
1  0.0001 -0.0000 -0.0000 -0.0000 26.7751  3.3221  0.0000 -7.1238 28.1290  0.0001 -0.0000 -0.0000 28.7694  1.3279  0.0000
2  0.0002 -0.0000 -0.0000 -0.0000 40.6332  7.4796  0.0000 -7.8620 39.8562  0.0002 -0.0000 -0.0000 42.4031  5.7097  0.0000
3  0.0001 -0.0000 -0.0000 -0.0000 26.1424  1.2130  0.0000 -2.2735 25.8590  0.0001 -0.0000 -0.0000 26.3480  1.0074  0.0000
4  0.0002 -0.0000 -0.0000 -0.0000 40.0005  5.3705  0.0000 -3.0117 37.9640  0.0002 -0.0000 -0.0000 40.2604  5.1105  0.0000
Element 15
GP#   e_11      e_22      e_33     e_12      s_11       s_22       s_33      s_12      VM      e_1      e_2      e_3      s_1      s_2      s_3 
1  0.0000 -0.0000 -0.0000 -0.0000  4.4306 -0.1388  0.0000 -6.7606 12.5452  0.0001 -0.0000 -0.0000  9.2821  0.0000 -4.9903
2  0.0001 -0.0000 -0.0000 -0.0000 17.8572  3.8892  0.0000 -6.9992 20.2860  0.0001 -0.0000 -0.0000 20.7608  0.9856  0.0000
3  0.0000 -0.0000 -0.0000 -0.0000  4.2261 -0.8204  0.0000 -2.0613  5.8946  0.0000 -0.0000 -0.0000  4.9610  0.0000 -1.5554
4  0.0001 -0.0000 -0.0000 -0.0000 17.6527  3.2076  0.0000 -2.2999 16.7676  0.0001 -0.0000 -0.0000 18.0100  2.8502  0.0000
Element 16
GP#   e_11      e_22      e_33     e_12      s_11       s_22       s_33      s_12      VM      e_1      e_2      e_3      s_1      s_2      s_3 
1 -0.0001  0.0000  0.0000 -0.0000 -17.8572 -3.8892  0.0000 -6.9992 20.2860  0.0000  0.0000 -0.0001  0.0000 -0.9856 -20.7608
2 -0.0000  0.0000  0.0000 -0.0000 -4.4306  0.1388  0.0000 -6.7606 12.5452  0.0000  0.0000 -0.0001  4.9903  0.0000 -9.2821
3 -0.0001  0.0000  0.0000 -0.0000 -17.6527 -3.2076  0.0000 -2.2999 16.7676  0.0000  0.0000 -0.0001  0.0000 -2.8502 -18.0100
4 -0.0000  0.0000  0.0000 -0.0000 -4.2261  0.8204  0.0000 -2.0613  5.8946  0.0000  0.0000 -0.0000  1.5554  0.0000 -4.9610
Element 17
GP#   e_11      e_22      e_33     e_12      s_11       s_22       s_33      s_12      VM      e_1      e_2      e_3      s_1      s_2      s_3 
1 -0.0002  0.0000  0.0000 -0.0000 -40.6332 -7.4796  0.0000 -7.8620 39.8562  0.0000  0.0000 -0.0002  0.0000 -5.7097 -42.4031
2 -0.0001  0.0000  0.0000 -0.0000 -26.7751 -3.3221  0.0000 -7.1238 28.1290  0.0000  0.0000 -0.0001  0.0000 -1.3279 -28.7694
3 -0.0002  0.0000  0.0000 -0.0000 -40.0005 -5.3705  0.0000 -3.0117 37.9640  0.0000  0.0000 -0.0002  0.0000 -5.1105 -40.2604
4 -0.0001  0.0000  0.0000 -0.0000 -26.1424 -1.2130  0.0000 -2.2735 25.8590  0.0000  0.0000 -0.0001  0.0000 -1.0074 -26.3480
Element 18
GP#   e_11      e_22      e_33     e_12      s_11       s_22       s_33      s_12      VM      e_1      e_2      e_3      s_1      s_2      s_3 
1 -0.0003  0.0000  0.0001 -0.0001 -64.4057 -10.2751  0.0000 -9.2807 62.0507  0.0001  0.0001 -0.0003  0.0000 -8.7282 -65.9527
2 -0.0002  0.0000  0.0001 -0.0000 -49.6698 -5.8544  0.0000 -7.9887 49.0106  0.0001  0.0001 -0.0002  0.0000 -4.4433 -51.0809
3 -0.0003  0.0001  0.0001 -0.0000 -63.2983 -6.5837  0.0000 -4.1231 60.6983  0.0001  0.0001 -0.0003  0.0000 -6.2855 -63.5965
4 -0.0002  0.0001  0.0001 -0.0000 -48.5624 -2.1629  0.0000 -2.8311 47.7702  0.0001  0.0001 -0.0002  0.0000 -1.9908 -48.7345
Element 19
GP#   e_11      e_22      e_33     e_12      s_11       s_22       s_33      s_12      VM      e_1      e_2      e_3      s_1      s_2      s_3 
1 -0.0004  0.0001  0.0001 -0.0001 -91.3075 -11.0641  0.0000 -10.8151 88.3184  0.0001  0.0001 -0.0004  0.0000 -9.6320 -92.7396
2 -0.0003  0.0001  0.0001 -0.0001 -73.8052 -5.8134  0.0000 -9.0697 72.7923  0.0001  0.0001 -0.0004  0.0000 -4.6244 -74.9943
3 -0.0004  0.0001  0.0001 -0.0000 -89.8114 -6.0771  0.0000 -4.6893 87.3109  0.0001  0.0001 -0.0004  0.0000 -5.8153 -90.0732
4 -0.0003  0.0001  0.0001 -0.0000 -72.3091 -0.8264  0.0000 -2.9439 72.0800  0.0001  0.0001 -0.0003  0.0000 -0.7054 -72.4301
Element 20
GP#   e_11      e_22      e_33     e_12      s_11       s_22       s_33      s_12      VM      e_1      e_2      e_3      s_1      s_2      s_3 
1 -0.0005  0.0001  0.0001 -0.0000 -109.2472 -1.5931  0.0000 -4.3469 108.7204  0.0001  0.0001 -0.0005  0.0000 -1.4179 -109.4224
2 -0.0005  0.0001  0.0001 -0.0000 -97.2196  2.0151  0.0000 -4.7959 98.5932  0.0001  0.0001 -0.0005  2.2464  0.0000 -97.4509
3 -0.0005  0.0001  0.0001 -0.0000 -109.6321 -2.8762  0.0000 -0.1372 108.2229  0.0001  0.0001 -0.0005  0.0000 -2.8760 -109.6323
4 -0.0005  0.0001  0.0001 -0.0000 -97.6045  0.7320  0.0000 -0.5863 97.9779  0.0001  0.0001 -0.0005  0.7355  0.0000 -97.6080
Element 21
GP#   e_11      e_22      e_33     e_12      s_11       s_22       s_33      s_12      VM      e_1      e_2      e_3      s_1      s_2      s_3 
1  0.0004 -0.0001 -0.0001 -0.0000 93.7301 -1.4668  0.0000 -3.3041 94.6453  0.0004 -0.0001 -0.0001 93.8447  0.0000 -1.5813
2  0.0005 -0.0001 -0.0001 -0.0000 105.7802  2.1482  0.0000 -3.3039 104.8789  0.0005 -0.0001 -0.0001 105.8855  2.0430  0.0000
3  0.0004 -0.0001 -0.0001  0.0000 93.7303 -1.4662  0.0000  0.9135 94.4852  0.0004 -0.0001 -0.0001 93.7391  0.0000 -1.4749
4  0.0005 -0.0001 -0.0001  0.0000 105.7804  2.1489  0.0000  0.9137 104.7345  0.0005 -0.0001 -0.0001 105.7885  2.1408  0.0000
Element 22
GP#   e_11      e_22      e_33     e_12      s_11       s_22       s_33      s_12      VM      e_1      e_2      e_3      s_1      s_2      s_3 
1  0.0003 -0.0001 -0.0001 -0.0000 72.1682 -0.9874  0.0000 -6.7422 73.5993  0.0003 -0.0001 -0.0001 72.7844  0.0000 -1.6035
2  0.0004 -0.0001 -0.0001 -0.0000 86.4006  3.2824  0.0000 -6.8583 85.6350  0.0004 -0.0001 -0.0001 86.9627  2.7203  0.0000
3  0.0003 -0.0001 -0.0001 -0.0000 72.0688 -1.3190  0.0000 -1.7609 72.8011  0.0003 -0.0001 -0.0001 72.1110  0.0000 -1.3612
4  0.0004 -0.0001 -0.0001 -0.0000 86.3012  2.9508  0.0000 -1.8769 84.9265  0.0004 -0.0001 -0.0001 86.3434  2.9085  0.0000
Element 23
GP#   e_11      e_22      e_33     e_12      s_11       s_22       s_33      s_12      VM      e_1      e_2      e_3      s_1      s_2      s_3 
1  0.0002 -0.0001 -0.0001 -0.0001 49.4752  0.6967  0.0000 -8.5335 51.3057  0.0002 -0.0001 -0.0001 50.9250  0.0000 -0.7531
2  0.0003 -0.0001 -0.0001 -0.0001 64.3235  5.1512  0.0000 -9.0699 63.8709  0.0003 -0.0001 -0.0001 65.6825  3.7922  0.0000
3  0.0002 -0.0001 -0.0000 -0.0000 49.0154 -0.8359  0.0000 -3.3366 49.7753  0.0002 -0.0000 -0.0001 49.2377  0.0000 -1.0583
4  0.0003 -0.0001 -0.0001 -0.0000 63.8637  3.6186  0.0000 -3.8730 62.4946  0.0003 -0.0001 -0.0001 64.1117  3.3706  0.0000
Element 24
GP#   e_11      e_22      e_33     e_12      s_11       s_22       s_33      s_12      VM      e_1      e_2      e_3      s_1      s_2      s_3 
1  0.0001 -0.0000 -0.0000 -0.0001 26.7519  0.3087  0.0000 -8.9032 30.7457  0.0001 -0.0000 -0.0001 29.4701  0.0000 -2.4095
2  0.0002 -0.0000 -0.0000 -0.0001 40.9594  4.5710  0.0000 -9.3074 42.0859  0.0002 -0.0000 -0.0001 43.2019  2.3285  0.0000
3  0.0001 -0.0000 -0.0000 -0.0000 26.4054 -0.8462  0.0000 -3.9305 27.6885  0.0001 -0.0000 -0.0000 26.9610  0.0000 -1.4018
4  0.0002 -0.0000 -0.0000 -0.0000 40.6130  3.4161  0.0000 -4.3347 39.7331  0.0002 -0.0000 -0.0000 41.1114  2.9176  0.0000
Element 25
GP#   e_11      e_22      e_33     e_12      s_11       s_22       s_33      s_12      VM      e_1      e_2      e_3      s_1      s_2      s_3 
1  0.0000 -0.0000 -0.0000 -0.0001  4.2835 -1.1673  0.0000 -9.0356 16.4206  0.0001 -0.0000 -0.0001 10.9958  0.0000 -7.8795
2  0.0001 -0.0000 -0.0000 -0.0001 18.1951  3.0062  0.0000 -9.1796 23.1991  0.0001 -0.0000 -0.0000 22.5145  0.0000 -1.3133
3  0.0000 -0.0000 -0.0000 -0.0000  4.1601 -1.5788  0.0000 -4.1665  8.8570  0.0000 -0.0000 -0.0000  6.3496  0.0000 -3.7684
4  0.0001 -0.0000 -0.0000 -0.0000 18.0716  2.5947  0.0000 -4.3106 18.4978  0.0001 -0.0000 -0.0000 19.1912  1.4751  0.0000
Element 26
GP#   e_11      e_22      e_33     e_12      s_11       s_22       s_33      s_12      VM      e_1      e_2      e_3      s_1      s_2      s_3 
1 -0.0001  0.0000  0.0000 -0.0001 -18.1951 -3.0062  0.0000 -9.1796 23.1991  0.0000  0.0000 -0.0001  1.3133  0.0000 -22.5145
2 -0.0000  0.0000  0.0000 -0.0001 -4.2835  1.1673  0.0000 -9.0356 16.4206  0.0001  0.0000 -0.0001  7.8795  0.0000 -10.9958
3 -0.0001  0.0000  0.0000 -0.0000 -18.0716 -2.5947  0.0000 -4.3106 18.4978  0.0000  0.0000 -0.0001  0.0000 -1.4751 -19.1912
4 -0.0000  0.0000  0.0000 -0.0000 -4.1601  1.5788  0.0000 -4.1665  8.8570  0.0000  0.0000 -0.0000  3.7684  0.0000 -6.3496
Element 27
GP#   e_11      e_22      e_33     e_12      s_11       s_22       s_33      s_12      VM      e_1      e_2      e_3      s_1      s_2      s_3 
1 -0.0002  0.0000  0.0000 -0.0001 -40.9594 -4.5710  0.0000 -9.3074 42.0859  0.0001  0.0000 -0.0002  0.0000 -2.3285 -43.2019
2 -0.0001  0.0000  0.0000 -0.0001 -26.7519 -0.3087  0.0000 -8.9032 30.7457  0.0001  0.0000 -0.0001  2.4095  0.0000 -29.4701
3 -0.0002  0.0000  0.0000 -0.0000 -40.6130 -3.4161  0.0000 -4.3347 39.7331  0.0000  0.0000 -0.0002  0.0000 -2.9176 -41.1114
4 -0.0001  0.0000  0.0000 -0.0000 -26.4054  0.8462  0.0000 -3.9305 27.6885  0.0000  0.0000 -0.0001  1.4018  0.0000 -26.9610
Element 28
GP#   e_11      e_22      e_33     e_12      s_11       s_22       s_33      s_12      VM      e_1      e_2      e_3      s_1      s_2      s_3 
1 -0.0003  0.0001  0.0001 -0.0001 -64.3235 -5.1512  0.0000 -9.0699 63.8709  0.0001  0.0001 -0.0003  0.0000 -3.7922 -65.6825
2 -0.0002  0.0001  0.0001 -0.0001 -49.4752 -0.6967  0.0000 -8.5335 51.3057  0.0001  0.0001 -0.0002  0.7531  0.0000 -50.9250
3 -0.0003  0.0001  0.0001 -0.0000 -63.8637 -3.6186  0.0000 -3.8730 62.4946  0.0001  0.0001 -0.0003  0.0000 -3.3706 -64.1117
4 -0.0002  0.0001  0.0000 -0.0000 -49.0154  0.8359  0.0000 -3.3366 49.7753  0.0001  0.0000 -0.0002  1.0583  0.0000 -49.2377
Element 29
GP#   e_11      e_22      e_33     e_12      s_11       s_22       s_33      s_12      VM      e_1      e_2      e_3      s_1      s_2      s_3 
1 -0.0004  0.0001  0.0001 -0.0000 -86.4006 -3.2824  0.0000 -6.8583 85.6350  0.0001  0.0001 -0.0004  0.0000 -2.7203 -86.9627
2 -0.0003  0.0001  0.0001 -0.0000 -72.1682  0.9874  0.0000 -6.7422 73.5993  0.0001  0.0001 -0.0003  1.6035  0.0000 -72.7844
3 -0.0004  0.0001  0.0001 -0.0000 -86.3012 -2.9508  0.0000 -1.8769 84.9265  0.0001  0.0001 -0.0004  0.0000 -2.9085 -86.3434
4 -0.0003  0.0001  0.0001 -0.0000 -72.0688  1.3190  0.0000 -1.7609 72.8011  0.0001  0.0001 -0.0003  1.3612  0.0000 -72.1110
Element 30
GP#   e_11      e_22      e_33     e_12      s_11       s_22       s_33      s_12      VM      e_1      e_2      e_3      s_1      s_2      s_3 
1 -0.0005  0.0001  0.0001 -0.0000 -105.7802 -2.1482  0.0000 -3.3039 104.8789  0.0001  0.0001 -0.0005  0.0000 -2.0430 -105.8855
2 -0.0004  0.0001  0.0001 -0.0000 -93.7301  1.4668  0.0000 -3.3041 94.6452  0.0001  0.0001 -0.0004  1.5813  0.0000 -93.8447
3 -0.0005  0.0001  0.0001  0.0000 -105.7804 -2.1489  0.0000  0.9137 104.7345  0.0001  0.0001 -0.0005  0.0000 -2.1408 -105.7885
4 -0.0004  0.0001  0.0001  0.0000 -93.7303  1.4662  0.0000  0.9135 94.4852  0.0001  0.0001 -0.0004  1.4749  0.0000 -93.7391
Element 31
GP#   e_11      e_22      e_33     e_12      s_11       s_22       s_33      s_12      VM      e_1      e_2      e_3      s_1      s_2      s_3 
1  0.0004 -0.0001 -0.0001 -0.0000 90.7966 -2.1920  0.0000 -3.3934 92.1000  0.0004 -0.0001 -0.0001 90.9203  0.0000 -2.3157
2  0.0005 -0.0001 -0.0001 -0.0000 103.4978  1.6183  0.0000 -3.2315 102.8506  0.0005 -0.0001 -0.0001 103.6002  1.5160  0.0000
3  0.0004 -0.0001 -0.0001  0.0000 90.9354 -1.7295  0.0000  1.0520 91.8304  0.0004 -0.0001 -0.0001 90.9473  0.0000 -1.7414
4  0.0005 -0.0001 -0.0001  0.0000 103.6366  2.0809  0.0000  1.2139 102.6335  0.0005 -0.0001 -0.0001 103.6511  2.0664  0.0000
Element 32
GP#   e_11      e_22      e_33     e_12      s_11       s_22       s_33      s_12      VM      e_1      e_2      e_3      s_1      s_2      s_3 
1  0.0003 -0.0001 -0.0001 -0.0000 69.9636 -1.9948  0.0000 -6.0108 71.7415  0.0003 -0.0001 -0.0001 70.4623  0.0000 -2.4935
2  0.0004 -0.0001 -0.0001 -0.0000 83.3671  2.0262  0.0000 -5.9413 83.0130  0.0004 -0.0001 -0.0001 83.7987  1.5945  0.0000
3  0.0003 -0.0001 -0.0001 -0.0000 70.0232 -1.7964  0.0000 -1.3196 70.9752  0.0003 -0.0001 -0.0001 70.0474  0.0000 -1.8206
4  0.0004 -0.0001 -0.0001 -0.0000 83.4266  2.2247  0.0000 -1.2501 82.3653  0.0004 -0.0001 -0.0001 83.4459  2.2054  0.0000
Element 33
GP#   e_11      e_22      e_33     e_12      s_11       s_22       s_33      s_12      VM      e_1      e_2      e_3      s_1      s_2      s_3 
1  0.0002 -0.0001 -0.0000 -0.0001 48.2540 -1.6197  0.0000 -8.1721 51.0841  0.0002 -0.0000 -0.0001 49.5590  0.0000 -2.9246
2  0.0003 -0.0001 -0.0001 -0.0001 62.2174  2.5693  0.0000 -8.2193 62.6133  0.0003 -0.0001 -0.0001 63.3293  1.4575  0.0000
3  0.0002 -0.0001 -0.0000 -0.0000 48.2136 -1.7544  0.0000 -3.2849 49.4428  0.0002 -0.0000 -0.0001 48.4287  0.0000 -1.9694
4  0.0003 -0.0001 -0.0001 -0.0000 62.1770  2.4346  0.0000 -3.3321 61.2686  0.0003 -0.0001 -0.0001 62.3623  2.2493  0.0000
Element 34
GP#   e_11      e_22      e_33     e_12      s_11       s_22       s_33      s_12      VM      e_1      e_2      e_3      s_1      s_2      s_3 
1  0.0001 -0.0000 -0.0000 -0.0001 26.2092 -1.4013  0.0000 -9.4088 31.4832  0.0001 -0.0000 -0.0001 29.1106  0.0000 -4.3026
2  0.0002 -0.0000 -0.0000 -0.0001 40.2544  2.8123  0.0000 -9.5260 42.2771  0.0002 -0.0000 -0.0001 42.5387  0.5281  0.0000
3  0.0001 -0.0000 -0.0000 -0.0000 26.1088 -1.7361  0.0000 -4.4930 28.1171  0.0001 -0.0000 -0.0000 26.8158  0.0000 -2.4432
4  0.0002 -0.0000 -0.0000 -0.0000 40.1540  2.4774  0.0000 -4.6102 39.7840  0.0002 -0.0000 -0.0000 40.7099  1.9215  0.0000
Element 35
GP#   e_11      e_22      e_33     e_12      s_11       s_22       s_33      s_12      VM      e_1      e_2      e_3      s_1      s_2      s_3 
1  0.0000 -0.0000 -0.0000 -0.0001  4.1045 -1.7811  0.0000 -9.9300 17.9762  0.0001 -0.0000 -0.0001 11.5186  0.0000 -9.1951
2  0.0001 -0.0000 -0.0000 -0.0001 18.0316  2.3970  0.0000 -9.9810 24.2182  0.0001 -0.0000 -0.0000 22.8923  0.0000 -2.4636
3  0.0000 -0.0000 -0.0000 -0.0000  4.0608 -1.9269  0.0000 -5.0555 10.2324  0.0000 -0.0000 -0.0000  6.9424  0.0000 -4.8085
4  0.0001 -0.0000 -0.0000 -0.0000 17.9879  2.2512  0.0000 -5.1065 19.1407  0.0001 -0.0000 -0.0000 19.4997  0.7394  0.0000
Element 36
GP#   e_11      e_22      e_33     e_12      s_11       s_22       s_33      s_12      VM      e_1      e_2      e_3      s_1      s_2      s_3 
1 -0.0001  0.0000  0.0000 -0.0001 -18.0316 -2.3970  0.0000 -9.9810 24.2182  0.0000  0.0000 -0.0001  2.4636  0.0000 -22.8923
2 -0.0000  0.0000  0.0000 -0.0001 -4.1045  1.7811  0.0000 -9.9300 17.9762  0.0001  0.0000 -0.0001  9.1951  0.0000 -11.5186
3 -0.0001  0.0000  0.0000 -0.0000 -17.9879 -2.2512  0.0000 -5.1065 19.1407  0.0000  0.0000 -0.0001  0.0000 -0.7394 -19.4997
4 -0.0000  0.0000  0.0000 -0.0000 -4.0608  1.9269  0.0000 -5.0555 10.2324  0.0000  0.0000 -0.0000  4.8085  0.0000 -6.9424
Element 37
GP#   e_11      e_22      e_33     e_12      s_11       s_22       s_33      s_12      VM      e_1      e_2      e_3      s_1      s_2      s_3 
1 -0.0002  0.0000  0.0000 -0.0001 -40.2544 -2.8123  0.0000 -9.5260 42.2771  0.0001  0.0000 -0.0002  0.0000 -0.5281 -42.5387
2 -0.0001  0.0000  0.0000 -0.0001 -26.2092  1.4013  0.0000 -9.4088 31.4832  0.0001  0.0000 -0.0001  4.3026  0.0000 -29.1106
3 -0.0002  0.0000  0.0000 -0.0000 -40.1540 -2.4774  0.0000 -4.6102 39.7840  0.0000  0.0000 -0.0002  0.0000 -1.9215 -40.7099
4 -0.0001  0.0000  0.0000 -0.0000 -26.1088  1.7361  0.0000 -4.4930 28.1171  0.0000  0.0000 -0.0001  2.4432  0.0000 -26.8158
Element 38
GP#   e_11      e_22      e_33     e_12      s_11       s_22       s_33      s_12      VM      e_1      e_2      e_3      s_1      s_2      s_3 
1 -0.0003  0.0001  0.0001 -0.0001 -62.2174 -2.5693  0.0000 -8.2193 62.6133  0.0001  0.0001 -0.0003  0.0000 -1.4575 -63.3293
2 -0.0002  0.0001  0.0000 -0.0001 -48.2540  1.6197  0.0000 -8.1721 51.0841  0.0001  0.0000 -0.0002  2.9246  0.0000 -49.5590
3 -0.0003  0.0001  0.0001 -0.0000 -62.1770 -2.4346  0.0000 -3.3321 61.2686  0.0001  0.0001 -0.0003  0.0000 -2.2493 -62.3623
4 -0.0002  0.0001  0.0000 -0.0000 -48.2136  1.7544  0.0000 -3.2849 49.4428  0.0001  0.0000 -0.0002  1.9694  0.0000 -48.4287
Element 39
GP#   e_11      e_22      e_33     e_12      s_11       s_22       s_33      s_12      VM      e_1      e_2      e_3      s_1      s_2      s_3 
1 -0.0004  0.0001  0.0001 -0.0000 -83.3671 -2.0262  0.0000 -5.9413 83.0130  0.0001  0.0001 -0.0004  0.0000 -1.5945 -83.7987
2 -0.0003  0.0001  0.0001 -0.0000 -69.9636  1.9948  0.0000 -6.0108 71.7415  0.0001  0.0001 -0.0003  2.4935  0.0000 -70.4623
3 -0.0004  0.0001  0.0001 -0.0000 -83.4266 -2.2247  0.0000 -1.2501 82.3653  0.0001  0.0001 -0.0004  0.0000 -2.2054 -83.4459
4 -0.0003  0.0001  0.0001 -0.0000 -70.0232  1.7964  0.0000 -1.3196 70.9752  0.0001  0.0001 -0.0003  1.8206  0.0000 -70.0474
Element 40
GP#   e_11      e_22      e_33     e_12      s_11       s_22       s_33      s_12      VM      e_1      e_2      e_3      s_1      s_2      s_3 
1 -0.0005  0.0001  0.0001 -0.0000 -103.4978 -1.6183  0.0000 -3.2315 102.8506  0.0001  0.0001 -0.0005  0.0000 -1.5160 -103.6002
2 -0.0004  0.0001  0.0001 -0.0000 -90.7966  2.1920  0.0000 -3.3934 92.1000  0.0001  0.0001 -0.0004  2.3157  0.0000 -90.9203
3 -0.0005  0.0001  0.0001  0.0000 -103.6366 -2.0809  0.0000  1.2139 102.6335  0.0001  0.0001 -0.0005  0.0000 -2.0664 -103.6511
4 -0.0004  0.0001  0.0001  0.0000 -90.9354  1.7295  0.0000  1.0520 91.8304  0.0001  0.0001 -0.0004  1.7414  0.0000 -90.9473
Element 41
GP#   e_11      e_22      e_33     e_12      s_11       s_22       s_33      s_12      VM      e_1      e_2      e_3      s_1      s_2      s_3 
1  0.0004 -0.0001 -0.0001 -0.0000 88.3508 -2.1995  0.0000 -3.5165 89.6779  0.0004 -0.0001 -0.0001 88.4871  0.0000 -2.3359
2  0.0005 -0.0001 -0.0001 -0.0000 101.2521  1.6709  0.0000 -3.3576 100.5953  0.0005 -0.0001 -0.0001 101.3652  1.5578  0.0000
3  0.0004 -0.0001 -0.0001  0.0000 88.4870 -1.7454  0.0000  0.9989 89.3892  0.0004 -0.0001 -0.0001 88.4981  0.0000 -1.7565
4  0.0005 -0.0001 -0.0001  0.0000 101.3883  2.1250  0.0000  1.1579 100.3628  0.0005 -0.0001 -0.0001 101.4018  2.1115  0.0000
Element 42
GP#   e_11      e_22      e_33     e_12      s_11       s_22       s_33      s_12      VM      e_1      e_2      e_3      s_1      s_2      s_3 
1  0.0003 -0.0001 -0.0001 -0.0000 67.7438 -2.2693  0.0000 -5.8840 69.6561  0.0003 -0.0001 -0.0001 68.2349  0.0000 -2.7604
2  0.0004 -0.0001 -0.0001 -0.0000 80.8474  1.6617  0.0000 -5.7320 80.6429  0.0004 -0.0001 -0.0001 81.2601  1.2490  0.0000
3  0.0003 -0.0001 -0.0001 -0.0000 67.8742 -1.8348  0.0000 -1.2978 68.8466  0.0003 -0.0001 -0.0001 67.8983  0.0000 -1.8589
4  0.0004 -0.0001 -0.0001 -0.0000 80.9777  2.0963  0.0000 -1.1457 79.9748  0.0004 -0.0001 -0.0001 80.9944  2.0796  0.0000
Element 43
GP#   e_11      e_22      e_33     e_12      s_11       s_22       s_33      s_12      VM      e_1      e_2      e_3      s_1      s_2      s_3 
1  0.0002 -0.0001 -0.0000 -0.0000 46.7111 -2.1585  0.0000 -7.9612 49.7751  0.0002 -0.0000 -0.0001 47.9754  0.0000 -3.4227
2  0.0003 -0.0001 -0.0001 -0.0000 60.1466  1.8722  0.0000 -7.8650 60.7790  0.0003 -0.0001 -0.0001 61.1894  0.8293  0.0000
3  0.0002 -0.0001 -0.0000 -0.0000 46.7936 -1.8835  0.0000 -3.2588 48.0956  0.0002 -0.0000 -0.0001 47.0108  0.0000 -2.1007
4  0.0003 -0.0001 -0.0001 -0.0000 60.2290  2.1471  0.0000 -3.1626 59.4377  0.0003 -0.0001 -0.0001 60.4007  1.9754  0.0000
Element 44
GP#   e_11      e_22      e_33     e_12      s_11       s_22       s_33      s_12      VM      e_1      e_2      e_3      s_1      s_2      s_3 
1  0.0001 -0.0000 -0.0000 -0.0001 25.3796 -2.0267  0.0000 -9.4084 31.0680  0.0001 -0.0000 -0.0001 28.2986  0.0000 -4.9456
2  0.0002 -0.0000 -0.0000 -0.0001 38.9716  2.0509  0.0000 -9.3666 41.3069  0.0002 -0.0000 -0.0001 41.2119  0.0000 -0.1894
3  0.0001 -0.0000 -0.0000 -0.0000 25.4154 -1.9073  0.0000 -4.6512 27.6217  0.0001 -0.0000 -0.0001 26.1855  0.0000 -2.6774
4  0.0002 -0.0000 -0.0000 -0.0000 39.0074  2.1703  0.0000 -4.6094 38.7991  0.0002 -0.0000 -0.0000 39.5754  1.6023  0.0000
Element 45
GP#   e_11      e_22      e_33     e_12      s_11       s_22       s_33      s_12      VM      e_1      e_2      e_3      s_1      s_2      s_3 
1  0.0000 -0.0000 -0.0000 -0.0001  3.9332 -2.0063  0.0000 -10.1216 18.2955  0.0001 -0.0000 -0.0001 11.5117  0.0000 -9.5848
2  0.0001 -0.0000 -0.0000 -0.0001 17.5487  2.0783  0.0000 -10.1138 24.1386  0.0001 -0.0000 -0.0000 22.5463  0.0000 -2.9192
3  0.0000 -0.0000 -0.0000 -0.0000  3.9399 -1.9841  0.0000 -5.3561 10.6462  0.0000 -0.0000 -0.0000  7.0985  0.0000 -5.1427
4  0.0001 -0.0000 -0.0000 -0.0000 17.5554  2.1006  0.0000 -5.3484 19.0143  0.0001 -0.0000 -0.0000 19.2257  0.4302  0.0000
Element 46
GP#   e_11      e_22      e_33     e_12      s_11       s_22       s_33      s_12      VM      e_1      e_2      e_3      s_1      s_2      s_3 
1 -0.0001  0.0000  0.0000 -0.0001 -17.5487 -2.0783  0.0000 -10.1138 24.1386  0.0000  0.0000 -0.0001  2.9192  0.0000 -22.5463
2 -0.0000  0.0000  0.0000 -0.0001 -3.9332  2.0063  0.0000 -10.1216 18.2955  0.0001  0.0000 -0.0001  9.5848  0.0000 -11.5117
3 -0.0001  0.0000  0.0000 -0.0000 -17.5554 -2.1006  0.0000 -5.3484 19.0143  0.0000  0.0000 -0.0001  0.0000 -0.4302 -19.2257
4 -0.0000  0.0000  0.0000 -0.0000 -3.9399  1.9841  0.0000 -5.3561 10.6462  0.0000  0.0000 -0.0000  5.1427  0.0000 -7.0985
Element 47
GP#   e_11      e_22      e_33     e_12      s_11       s_22       s_33      s_12      VM      e_1      e_2      e_3      s_1      s_2      s_3 
1 -0.0002  0.0000  0.0000 -0.0001 -38.9716 -2.0509  0.0000 -9.3666 41.3069  0.0001  0.0000 -0.0002  0.1894  0.0000 -41.2119
2 -0.0001  0.0000  0.0000 -0.0001 -25.3796  2.0267  0.0000 -9.4084 31.0680  0.0001  0.0000 -0.0001  4.9456  0.0000 -28.2986
3 -0.0002  0.0000  0.0000 -0.0000 -39.0074 -2.1703  0.0000 -4.6094 38.7991  0.0000  0.0000 -0.0002  0.0000 -1.6023 -39.5754
4 -0.0001  0.0000  0.0000 -0.0000 -25.4154  1.9073  0.0000 -4.6512 27.6217  0.0001  0.0000 -0.0001  2.6774  0.0000 -26.1855
Element 48
GP#   e_11      e_22      e_33     e_12      s_11       s_22       s_33      s_12      VM      e_1      e_2      e_3      s_1      s_2      s_3 
1 -0.0003  0.0001  0.0001 -0.0000 -60.1466 -1.8722  0.0000 -7.8650 60.7790  0.0001  0.0001 -0.0003  0.0000 -0.8293 -61.1894
2 -0.0002  0.0001  0.0000 -0.0000 -46.7111  2.1585  0.0000 -7.9612 49.7751  0.0001  0.0000 -0.0002  3.4227  0.0000 -47.9754
3 -0.0003  0.0001  0.0001 -0.0000 -60.2290 -2.1471  0.0000 -3.1626 59.4377  0.0001  0.0001 -0.0003  0.0000 -1.9754 -60.4007
4 -0.0002  0.0001  0.0000 -0.0000 -46.7936  1.8835  0.0000 -3.2588 48.0956  0.0001  0.0000 -0.0002  2.1007  0.0000 -47.0108
Element 49
GP#   e_11      e_22      e_33     e_12      s_11       s_22       s_33      s_12      VM      e_1      e_2      e_3      s_1      s_2      s_3 
1 -0.0004  0.0001  0.0001 -0.0000 -80.8474 -1.6617  0.0000 -5.7320 80.6429  0.0001  0.0001 -0.0004  0.0000 -1.2490 -81.2601
2 -0.0003  0.0001  0.0001 -0.0000 -67.7438  2.2693  0.0000 -5.8840 69.6561  0.0001  0.0001 -0.0003  2.7604  0.0000 -68.2349
3 -0.0004  0.0001  0.0001 -0.0000 -80.9777 -2.0963  0.0000 -1.1457 79.9748  0.0001  0.0001 -0.0004  0.0000 -2.0796 -80.9944
4 -0.0003  0.0001  0.0001 -0.0000 -67.8742  1.8348  0.0000 -1.2978 68.8466  0.0001  0.0001 -0.0003  1.8589  0.0000 -67.8983
Element 50
GP#   e_11      e_22      e_33     e_12      s_11       s_22       s_33      s_12      VM      e_1      e_2      e_3      s_1      s_2      s_3 
1 -0.0005  0.0001  0.0001 -0.0000 -101.2521 -1.6709  0.0000 -3.3576 100.5953  0.0001  0.0001 -0.0005  0.0000 -1.5578 -101.3652
2 -0.0004  0.0001  0.0001 -0.0000 -88.3508  2.1995  0.0000 -3.5165 89.6779  0.0001  0.0001 -0.0004  2.3359  0.0000 -88.4871
3 -0.0005  0.0001  0.0001  0.0000 -101.3883 -2.1250  0.0000  1.1579 100.3628  0.0001  0.0001 -0.0005  0.0000 -2.1115 -101.4018
4 -0.0004  0.0001  0.0001  0.0000 -88.4870  1.7454  0.0000  0.9989 89.3892  0.0001  0.0001 -0.0004  1.7565  0.0000 -88.4981
Element 51
GP#   e_11      e_22      e_33     e_12      s_11       s_22       s_33      s_12      VM      e_1      e_2      e_3      s_1      s_2      s_3 
1  0.0004 -0.0001 -0.0001 -0.0000 85.9954 -2.1790  0.0000 -3.5707 87.3247  0.0004 -0.0001 -0.0001 86.1398  0.0000 -2.3233
2  0.0005 -0.0001 -0.0001 -0.0000 98.8175  1.6676  0.0000 -3.3999 98.1711  0.0005 -0.0001 -0.0001 98.9363  1.5488  0.0000
3  0.0004 -0.0001 -0.0001  0.0000 86.1419 -1.6907  0.0000  0.9170 87.0141  0.0004 -0.0001 -0.0001 86.1515  0.0000 -1.7003
4  0.0005 -0.0001 -0.0001  0.0000 98.9639  2.1559  0.0000  1.0879 97.9219  0.0005 -0.0001 -0.0001 98.9762  2.1436  0.0000
Element 52
GP#   e_11      e_22      e_33     e_12      s_11       s_22       s_33      s_12      VM      e_1      e_2      e_3      s_1      s_2      s_3 
1  0.0003 -0.0001 -0.0001 -0.0000 65.6412 -2.1961  0.0000 -5.8591 67.5332  0.0003 -0.0001 -0.0001 66.1435  0.0000 -2.6984
2  0.0004 -0.0001 -0.0001 -0.0000 78.5754  1.6842  0.0000 -5.6868 78.3685  0.0004 -0.0001 -0.0001 78.9938  1.2659  0.0000
3  0.0003 -0.0001 -0.0001 -0.0000 65.7888 -1.7040  0.0000 -1.3321 66.6971  0.0003 -0.0001 -0.0001 65.8151  0.0000 -1.7303
4  0.0004 -0.0001 -0.0001 -0.0000 78.7230  2.1762  0.0000 -1.1599 77.6838  0.0004 -0.0001 -0.0001 78.7406  2.1587  0.0000
Element 53
GP#   e_11      e_22      e_33     e_12      s_11       s_22       s_33      s_12      VM      e_1      e_2      e_3      s_1      s_2      s_3 
1  0.0002 -0.0001 -0.0000 -0.0000 45.0957 -2.1498  0.0000 -7.8531 48.1686  0.0002 -0.0000 -0.0001 46.3669  0.0000 -3.4210
2  0.0003 -0.0001 -0.0001 -0.0000 58.1690  1.7722  0.0000 -7.6939 58.8326  0.0003 -0.0001 -0.0001 59.1998  0.7413  0.0000
3  0.0002 -0.0001 -0.0000 -0.0000 45.2322 -1.6950  0.0000 -3.2775 46.4512  0.0002 -0.0000 -0.0001 45.4600  0.0000 -1.9228
4  0.0003 -0.0001 -0.0001 -0.0000 58.3055  2.2270  0.0000 -3.1183 57.4788  0.0003 -0.0001 -0.0001 58.4783  2.0541  0.0000
Element 54
GP#   e_11      e_22      e_33     e_12      s_11       s_22       s_33      s_12      VM      e_1      e_2      e_3      s_1      s_2      s_3 
1  0.0001 -0.0000 -0.0000 -0.0001 24.4504 -2.0542  0.0000 -9.3320 30.2245  0.0001 -0.0000 -0.0001 27.4064  0.0000 -5.0102
2  0.0002 -0.0000 -0.0000 -0.0001 37.5787  1.8843  0.0000 -9.2239 40.0017  0.0002 -0.0000 -0.0001 39.8213  0.0000 -0.3584
3  0.0001 -0.0000 -0.0000 -0.0000 24.5430 -1.7456  0.0000 -4.7370 26.7500  0.0001 -0.0000 -0.0000 25.3705  0.0000 -2.5731
4  0.0002 -0.0000 -0.0000 -0.0000 37.6713  2.1929  0.0000 -4.6290 37.4914  0.0002 -0.0000 -0.0000 38.2653  1.5989  0.0000
Element 55
GP#   e_11      e_22      e_33     e_12      s_11       s_22       s_33      s_12      VM      e_1      e_2      e_3      s_1      s_2      s_3 
1  0.0000 -0.0000 -0.0000 -0.0001  3.7763 -1.9893  0.0000 -10.0996 18.2137  0.0001 -0.0000 -0.0001 11.3965  0.0000 -9.6095
2  0.0001 -0.0000 -0.0000 -0.0001 16.9055  1.9495  0.0000 -10.0614 23.6714  0.0001 -0.0000 -0.0000 21.9635  0.0000 -3.1086
3  0.0000 -0.0000 -0.0000 -0.0000  3.8091 -1.8800  0.0000 -5.5044 10.7750  0.0000 -0.0000 -0.0000  7.1606  0.0000 -5.2314
4  0.0001 -0.0000 -0.0000 -0.0000 16.9383  2.0588  0.0000 -5.4662 18.5987  0.0001 -0.0000 -0.0000 18.7305  0.2666  0.0000
Element 56
GP#   e_11      e_22      e_33     e_12      s_11       s_22       s_33      s_12      VM      e_1      e_2      e_3      s_1      s_2      s_3 
1 -0.0001  0.0000  0.0000 -0.0001 -16.9055 -1.9495  0.0000 -10.0614 23.6714  0.0000  0.0000 -0.0001  3.1086  0.0000 -21.9635
2 -0.0000  0.0000  0.0000 -0.0001 -3.7763  1.9893  0.0000 -10.0996 18.2137  0.0001  0.0000 -0.0001  9.6095  0.0000 -11.3965
3 -0.0001  0.0000  0.0000 -0.0000 -16.9383 -2.0588  0.0000 -5.4662 18.5987  0.0000  0.0000 -0.0001  0.0000 -0.2666 -18.7305
4 -0.0000  0.0000  0.0000 -0.0000 -3.8091  1.8800  0.0000 -5.5044 10.7750  0.0000  0.0000 -0.0000  5.2314  0.0000 -7.1606
Element 57
GP#   e_11      e_22      e_33     e_12      s_11       s_22       s_33      s_12      VM      e_1      e_2      e_3      s_1      s_2      s_3 
1 -0.0002  0.0000  0.0000 -0.0001 -37.5787 -1.8843  0.0000 -9.2239 40.0017  0.0001  0.0000 -0.0002  0.3584  0.0000 -39.8213
2 -0.0001  0.0000  0.0000 -0.0001 -24.4504  2.0542  0.0000 -9.3320 30.2245  0.0001  0.0000 -0.0001  5.0102  0.0000 -27.4064
3 -0.0002  0.0000  0.0000 -0.0000 -37.6713 -2.1929  0.0000 -4.6290 37.4914  0.0000  0.0000 -0.0002  0.0000 -1.5989 -38.2653
4 -0.0001  0.0000  0.0000 -0.0000 -24.5430  1.7456  0.0000 -4.7370 26.7500  0.0000  0.0000 -0.0001  2.5731  0.0000 -25.3705
Element 58
GP#   e_11      e_22      e_33     e_12      s_11       s_22       s_33      s_12      VM      e_1      e_2      e_3      s_1      s_2      s_3 
1 -0.0003  0.0001  0.0001 -0.0000 -58.1690 -1.7722  0.0000 -7.6939 58.8326  0.0001  0.0001 -0.0003  0.0000 -0.7413 -59.1998
2 -0.0002  0.0001  0.0000 -0.0000 -45.0957  2.1498  0.0000 -7.8531 48.1686  0.0001  0.0000 -0.0002  3.4210  0.0000 -46.3669
3 -0.0003  0.0001  0.0001 -0.0000 -58.3055 -2.2270  0.0000 -3.1183 57.4788  0.0001  0.0001 -0.0003  0.0000 -2.0541 -58.4783
4 -0.0002  0.0001  0.0000 -0.0000 -45.2322  1.6950  0.0000 -3.2775 46.4512  0.0001  0.0000 -0.0002  1.9228  0.0000 -45.4600
Element 59
GP#   e_11      e_22      e_33     e_12      s_11       s_22       s_33      s_12      VM      e_1      e_2      e_3      s_1      s_2      s_3 
1 -0.0004  0.0001  0.0001 -0.0000 -78.5754 -1.6842  0.0000 -5.6868 78.3685  0.0001  0.0001 -0.0004  0.0000 -1.2659 -78.9938
2 -0.0003  0.0001  0.0001 -0.0000 -65.6412  2.1961  0.0000 -5.8591 67.5332  0.0001  0.0001 -0.0003  2.6984  0.0000 -66.1435
3 -0.0004  0.0001  0.0001 -0.0000 -78.7230 -2.1762  0.0000 -1.1599 77.6838  0.0001  0.0001 -0.0004  0.0000 -2.1587 -78.7406
4 -0.0003  0.0001  0.0001 -0.0000 -65.7888  1.7040  0.0000 -1.3321 66.6971  0.0001  0.0001 -0.0003  1.7303  0.0000 -65.8151
Element 60
GP#   e_11      e_22      e_33     e_12      s_11       s_22       s_33      s_12      VM      e_1      e_2      e_3      s_1      s_2      s_3 
1 -0.0005  0.0001  0.0001 -0.0000 -98.8175 -1.6676  0.0000 -3.3999 98.1711  0.0001  0.0001 -0.0005  0.0000 -1.5488 -98.9363
2 -0.0004  0.0001  0.0001 -0.0000 -85.9954  2.1790  0.0000 -3.5707 87.3247  0.0001  0.0001 -0.0004  2.3233  0.0000 -86.1398
3 -0.0005  0.0001  0.0001  0.0000 -98.9639 -2.1559  0.0000  1.0879 97.9219  0.0001  0.0001 -0.0005  0.0000 -2.1436 -98.9762
4 -0.0004  0.0001  0.0001  0.0000 -86.1419  1.6907  0.0000  0.9170 87.0141  0.0001  0.0001 -0.0004  1.7003  0.0000 -86.1515
Element 61
GP#   e_11      e_22      e_33     e_12      s_11       s_22       s_33      s_12      VM      e_1      e_2      e_3      s_1      s_2      s_3 
1  0.0004 -0.0001 -0.0001 -0.0000 83.7027 -2.0985  0.0000 -3.5086 84.9890  0.0004 -0.0001 -0.0001 83.8459  0.0000 -2.2417
2  0.0005 -0.0001 -0.0001 -0.0000 96.3455  1.6944  0.0000 -3.3390 95.6845  0.0005 -0.0001 -0.0001 96.4631  1.5767  0.0000
3  0.0004 -0.0001 -0.0001  0.0000 83.8481 -1.6139  0.0000  0.9163 84.6814  0.0004 -0.0001 -0.0001 83.8579  0.0000 -1.6237
4  0.0005 -0.0001 -0.0001  0.0000 96.4909  2.1789  0.0000  1.0860 95.4386  0.0005 -0.0001 -0.0001 96.5034  2.1664  0.0000
Element 62
GP#   e_11      e_22      e_33     e_12      s_11       s_22       s_33      s_12      VM      e_1      e_2      e_3      s_1      s_2      s_3 
1  0.0003 -0.0001 -0.0001 -0.0000 63.5537 -2.0155  0.0000 -5.7623 65.3517  0.0003 -0.0001 -0.0001 64.0563  0.0000 -2.5181
2  0.0004 -0.0001 -0.0001 -0.0000 76.3950  1.8369  0.0000 -5.5572 76.1045  0.0004 -0.0001 -0.0001 76.8069  1.4249  0.0000
3  0.0003 -0.0001 -0.0001 -0.0000 63.7295 -1.4297  0.0000 -1.2678 64.4936  0.0003 -0.0001 -0.0001 63.7541  0.0000 -1.4543
4  0.0004 -0.0001 -0.0001 -0.0000 76.5707  2.4227  0.0000 -1.0628 75.4111  0.0004 -0.0001 -0.0001 76.5860  2.4075  0.0000
Element 63
GP#   e_11      e_22      e_33     e_12      s_11       s_22       s_33      s_12      VM      e_1      e_2      e_3      s_1      s_2      s_3 
1  0.0002 -0.0001 -0.0000 -0.0000 43.4167 -1.8916  0.0000 -7.7734 46.3895  0.0002 -0.0000 -0.0001 44.7132  0.0000 -3.1881
2  0.0003 -0.0001 -0.0001 -0.0000 56.2051  1.9450  0.0000 -7.5668 56.7913  0.0003 -0.0001 -0.0001 57.2405  0.9095  0.0000
3  0.0002 -0.0001 -0.0000 -0.0000 43.5938 -1.3013  0.0000 -3.2975 44.6257  0.0002 -0.0000 -0.0001 43.8347  0.0000 -1.5422
4  0.0003 -0.0001 -0.0001 -0.0000 56.3822  2.5353  0.0000 -3.0909 55.4174  0.0003 -0.0001 -0.0001 56.5590  2.3584  0.0000
Element 64
GP#   e_11      e_22      e_33     e_12      s_11       s_22       s_33      s_12      VM      e_1      e_2      e_3      s_1      s_2      s_3 
1  0.0001 -0.0000 -0.0000 -0.0001 23.4548 -1.8248  0.0000 -9.3210 29.2729  0.0001 -0.0000 -0.0001 26.5200  0.0000 -4.8899
2  0.0002 -0.0000 -0.0000 -0.0001 36.1026  1.9696  0.0000 -9.1693 38.5798  0.0002 -0.0000 -0.0001 38.4099  0.0000 -0.3376
3  0.0001 -0.0000 -0.0000 -0.0000 23.5849 -1.3911  0.0000 -4.8943 25.7460  0.0001 -0.0000 -0.0000 24.5098  0.0000 -2.3160
4  0.0002 -0.0000 -0.0000 -0.0000 36.2327  2.4032  0.0000 -4.7426 36.0415  0.0002 -0.0000 -0.0000 36.8850  1.7509  0.0000
Element 65
GP#   e_11      e_22      e_33     e_12      s_11       s_22       s_33      s_12      VM      e_1      e_2      e_3      s_1      s_2      s_3 
1  0.0000 -0.0000 -0.0000 -0.0001  3.6276 -1.8480  0.0000 -10.1357 18.2064  0.0001 -0.0000 -0.0001 11.3888  0.0000 -9.6091
2  0.0001 -0.0000 -0.0000 -0.0001 16.1831  1.9187  0.0000 -10.0831 23.2278  0.0001 -0.0000 -0.0000 21.4015  0.0000 -3.2997
3  0.0000 -0.0000 -0.0000 -0.0000  3.6727 -1.6977  0.0000 -5.7413 11.0224  0.0000 -0.0000 -0.0000  7.3257  0.0000 -5.3507
4  0.0001 -0.0000 -0.0000 -0.0000 16.2282  2.0689  0.0000 -5.6887 18.1973  0.0001 -0.0000 -0.0000 18.2305  0.0665  0.0000
Element 66
GP#   e_11      e_22      e_33     e_12      s_11       s_22       s_33      s_12      VM      e_1      e_2      e_3      s_1      s_2      s_3 
1 -0.0001  0.0000  0.0000 -0.0001 -16.1831 -1.9187  0.0000 -10.0831 23.2278  0.0000  0.0000 -0.0001  3.2997  0.0000 -21.4015
2 -0.0000  0.0000  0.0000 -0.0001 -3.6276  1.8480  0.0000 -10.1357 18.2064  0.0001  0.0000 -0.0001  9.6091  0.0000 -11.3888
3 -0.0001  0.0000  0.0000 -0.0000 -16.2282 -2.0689  0.0000 -5.6887 18.1973  0.0000  0.0000 -0.0001  0.0000 -0.0665 -18.2305
4 -0.0000  0.0000  0.0000 -0.0000 -3.6727  1.6977  0.0000 -5.7413 11.0224  0.0000  0.0000 -0.0000  5.3507  0.0000 -7.3257
Element 67
GP#   e_11      e_22      e_33     e_12      s_11       s_22       s_33      s_12      VM      e_1      e_2      e_3      s_1      s_2      s_3 
1 -0.0002  0.0000  0.0000 -0.0001 -36.1026 -1.9696  0.0000 -9.1693 38.5798  0.0001  0.0000 -0.0002  0.3376  0.0000 -38.4099
2 -0.0001  0.0000  0.0000 -0.0001 -23.4548  1.8248  0.0000 -9.3210 29.2729  0.0001  0.0000 -0.0001  4.8899  0.0000 -26.5200
3 -0.0002  0.0000  0.0000 -0.0000 -36.2327 -2.4032  0.0000 -4.7426 36.0415  0.0000  0.0000 -0.0002  0.0000 -1.7509 -36.8850
4 -0.0001  0.0000  0.0000 -0.0000 -23.5849  1.3911  0.0000 -4.8943 25.7460  0.0000  0.0000 -0.0001  2.3160  0.0000 -24.5098
Element 68
GP#   e_11      e_22      e_33     e_12      s_11       s_22       s_33      s_12      VM      e_1      e_2      e_3      s_1      s_2      s_3 
1 -0.0003  0.0001  0.0001 -0.0000 -56.2051 -1.9450  0.0000 -7.5668 56.7913  0.0001  0.0001 -0.0003  0.0000 -0.9095 -57.2405
2 -0.0002  0.0001  0.0000 -0.0000 -43.4167  1.8916  0.0000 -7.7734 46.3895  0.0001  0.0000 -0.0002  3.1881  0.0000 -44.7132
3 -0.0003  0.0001  0.0001 -0.0000 -56.3822 -2.5353  0.0000 -3.0909 55.4174  0.0001  0.0001 -0.0003  0.0000 -2.3584 -56.5590
4 -0.0002  0.0001  0.0000 -0.0000 -43.5938  1.3013  0.0000 -3.2975 44.6257  0.0001  0.0000 -0.0002  1.5422  0.0000 -43.8347
Element 69
GP#   e_11      e_22      e_33     e_12      s_11       s_22       s_33      s_12      VM      e_1      e_2      e_3      s_1      s_2      s_3 
1 -0.0004  0.0001  0.0001 -0.0000 -76.3950 -1.8368  0.0000 -5.5572 76.1045  0.0001  0.0001 -0.0004  0.0000 -1.4249 -76.8069
2 -0.0003  0.0001  0.0001 -0.0000 -63.5537  2.0155  0.0000 -5.7623 65.3517  0.0001  0.0001 -0.0003  2.5181  0.0000 -64.0563
3 -0.0004  0.0001  0.0001 -0.0000 -76.5707 -2.4227  0.0000 -1.0628 75.4111  0.0001  0.0001 -0.0004  0.0000 -2.4075 -76.5860
4 -0.0003  0.0001  0.0001 -0.0000 -63.7295  1.4297  0.0000 -1.2678 64.4936  0.0001  0.0001 -0.0003  1.4543  0.0000 -63.7541
Element 70
GP#   e_11      e_22      e_33     e_12      s_11       s_22       s_33      s_12      VM      e_1      e_2      e_3      s_1      s_2      s_3 
1 -0.0005  0.0001  0.0001 -0.0000 -96.3455 -1.6944  0.0000 -3.3390 95.6845  0.0001  0.0001 -0.0005  0.0000 -1.5767 -96.4631
2 -0.0004  0.0001  0.0001 -0.0000 -83.7027  2.0985  0.0000 -3.5086 84.9890  0.0001  0.0001 -0.0004  2.2417  0.0000 -83.8459
3 -0.0005  0.0001  0.0001  0.0000 -96.4909 -2.1789  0.0000  1.0859 95.4386  0.0001  0.0001 -0.0005  0.0000 -2.1664 -96.5034
4 -0.0004  0.0001  0.0001  0.0000 -83.8480  1.6139  0.0000  0.9163 84.6814  0.0001  0.0001 -0.0004  1.6237  0.0000 -83.8579
Element 71
GP#   e_11      e_22      e_33     e_12      s_11       s_22       s_33      s_12      VM      e_1      e_2      e_3      s_1      s_2      s_3 
1  0.0004 -0.0001 -0.0001 -0.0000 81.5124 -1.9638  0.0000 -3.2982 82.7094  0.0004 -0.0001 -0.0001 81.6425  0.0000 -2.0939
2  0.0004 -0.0001 -0.0001 -0.0000 94.1273  1.8207  0.0000 -3.0992 93.3847  0.0004 -0.0001 -0.0001 94.2313  1.7167  0.0000
3  0.0004 -0.0001 -0.0001  0.0000 81.6830 -1.3952  0.0000  1.1170 82.4121  0.0004 -0.0001 -0.0001 81.6980  0.0000 -1.4102
4  0.0004 -0.0001 -0.0001  0.0000 94.2979  2.3893  0.0000  1.3160 93.1542  0.0004 -0.0001 -0.0001 94.3168  2.3704  0.0000
Element 72
GP#   e_11      e_22      e_33     e_12      s_11       s_22       s_33      s_12      VM      e_1      e_2      e_3      s_1      s_2      s_3 
1  0.0003 -0.0001 -0.0001 -0.0000 61.3054 -1.7120  0.0000 -5.5050 62.9059  0.0003 -0.0001 -0.0001 61.7827  0.0000 -2.1893
2  0.0004 -0.0001 -0.0001 -0.0000 74.2415  2.1688  0.0000 -5.2426 73.7424  0.0004 -0.0001 -0.0001 74.6209  1.7895  0.0000
3  0.0003 -0.0001 -0.0001 -0.0000 61.5303 -0.9622  0.0000 -0.9774 62.0401  0.0003 -0.0001 -0.0001 61.5456  0.0000 -0.9775
4  0.0004 -0.0001 -0.0001 -0.0000 74.4665  2.9187  0.0000 -0.7149 73.0614  0.0004 -0.0001 -0.0001 74.4736  2.9115  0.0000
Element 73
GP#   e_11      e_22      e_33     e_12      s_11       s_22       s_33      s_12      VM      e_1      e_2      e_3      s_1      s_2      s_3 
1  0.0002 -0.0001 -0.0000 -0.0000 41.5379 -1.4431  0.0000 -7.7355 44.3502  0.0002 -0.0000 -0.0001 42.8877  0.0000 -2.7929
2  0.0003 -0.0001 -0.0001 -0.0000 54.0386  2.3071  0.0000 -7.4430 54.4703  0.0003 -0.0001 -0.0001 55.0882  1.2575  0.0000
3  0.0002 -0.0001 -0.0000 -0.0000 41.7886 -0.6076  0.0000 -3.3603 42.4961  0.0002 -0.0000 -0.0001 42.0532  0.0000 -0.8723
4  0.0003 -0.0001 -0.0001 -0.0000 54.2892  3.1426  0.0000 -3.0678 53.0549  0.0003 -0.0001 -0.0001 54.4726  2.9593  0.0000
Element 74
GP#   e_11      e_22      e_33     e_12      s_11       s_22       s_33      s_12      VM      e_1      e_2      e_3      s_1      s_2      s_3 
1  0.0001 -0.0000 -0.0000 -0.0001 22.3789 -1.4481  0.0000 -9.4609 28.3522  0.0001 -0.0000 -0.0001 25.6786  0.0000 -4.7478
2  0.0002 -0.0000 -0.0000 -0.0001 34.4407  2.1704  0.0000 -9.2924 37.0832  0.0002 -0.0000 -0.0001 36.9252  0.0000 -0.3141
3  0.0001 -0.0000 -0.0000 -0.0000 22.5234 -0.9665  0.0000 -5.2393 24.7459  0.0001 -0.0000 -0.0000 23.6390  0.0000 -2.0821
4  0.0002 -0.0000 -0.0000 -0.0000 34.5851  2.6520  0.0000 -5.0708 34.4758  0.0002 -0.0000 -0.0000 35.3710  1.8661  0.0000
Element 75
GP#   e_11      e_22      e_33     e_12      s_11       s_22       s_33      s_12      VM      e_1      e_2      e_3      s_1      s_2      s_3 
1  0.0000 -0.0000 -0.0000 -0.0001  3.4754 -1.6556  0.0000 -10.3453 18.4837  0.0001 -0.0000 -0.0001 11.5685  0.0000 -9.7487
2  0.0001 -0.0000 -0.0000 -0.0001 15.4004  1.9220  0.0000 -10.2913 23.0000  0.0001 -0.0000 -0.0000 20.9627  0.0000 -3.6404
3  0.0000 -0.0000 -0.0000 -0.0000  3.5216 -1.5014  0.0000 -6.1715 11.5847  0.0000 -0.0000 -0.0000  7.6731  0.0000 -5.6528
4  0.0001 -0.0000 -0.0000 -0.0000 15.4466  2.0761  0.0000 -6.1175 17.9753  0.0001 -0.0000 -0.0000 17.8232  0.0000 -0.3004
Element 76
GP#   e_11      e_22      e_33     e_12      s_11       s_22       s_33      s_12      VM      e_1      e_2      e_3      s_1      s_2      s_3 
1 -0.0001  0.0000  0.0000 -0.0001 -15.4004 -1.9220  0.0000 -10.2913 23.0000  0.0000  0.0000 -0.0001  3.6404  0.0000 -20.9627
2 -0.0000  0.0000  0.0000 -0.0001 -3.4754  1.6556  0.0000 -10.3453 18.4837  0.0001  0.0000 -0.0001  9.7487  0.0000 -11.5685
3 -0.0001  0.0000  0.0000 -0.0000 -15.4466 -2.0761  0.0000 -6.1175 17.9753  0.0000  0.0000 -0.0001  0.3004  0.0000 -17.8232
4 -0.0000  0.0000  0.0000 -0.0000 -3.5216  1.5014  0.0000 -6.1715 11.5847  0.0000  0.0000 -0.0000  5.6528  0.0000 -7.6731
Element 77
GP#   e_11      e_22      e_33     e_12      s_11       s_22       s_33      s_12      VM      e_1      e_2      e_3      s_1      s_2      s_3 
1 -0.0002  0.0000  0.0000 -0.0001 -34.4407 -2.1704  0.0000 -9.2924 37.0832  0.0001  0.0000 -0.0002  0.3141  0.0000 -36.9252
2 -0.0001  0.0000  0.0000 -0.0001 -22.3789  1.4481  0.0000 -9.4609 28.3522  0.0001  0.0000 -0.0001  4.7478  0.0000 -25.6786
3 -0.0002  0.0000  0.0000 -0.0000 -34.5851 -2.6520  0.0000 -5.0708 34.4758  0.0000  0.0000 -0.0002  0.0000 -1.8661 -35.3710
4 -0.0001  0.0000  0.0000 -0.0000 -22.5234  0.9665  0.0000 -5.2393 24.7459  0.0000  0.0000 -0.0001  2.0821  0.0000 -23.6390
Element 78
GP#   e_11      e_22      e_33     e_12      s_11       s_22       s_33      s_12      VM      e_1      e_2      e_3      s_1      s_2      s_3 
1 -0.0003  0.0001  0.0001 -0.0000 -54.0386 -2.3071  0.0000 -7.4430 54.4703  0.0001  0.0001 -0.0003  0.0000 -1.2575 -55.0882
2 -0.0002  0.0001  0.0000 -0.0000 -41.5379  1.4431  0.0000 -7.7355 44.3502  0.0001  0.0000 -0.0002  2.7929  0.0000 -42.8877
3 -0.0003  0.0001  0.0001 -0.0000 -54.2892 -3.1426  0.0000 -3.0678 53.0549  0.0001  0.0001 -0.0003  0.0000 -2.9593 -54.4726
4 -0.0002  0.0001  0.0000 -0.0000 -41.7886  0.6076  0.0000 -3.3603 42.4961  0.0001  0.0000 -0.0002  0.8723  0.0000 -42.0532
Element 79
GP#   e_11      e_22      e_33     e_12      s_11       s_22       s_33      s_12      VM      e_1      e_2      e_3      s_1      s_2      s_3 
1 -0.0004  0.0001  0.0001 -0.0000 -74.2415 -2.1688  0.0000 -5.2426 73.7424  0.0001  0.0001 -0.0004  0.0000 -1.7895 -74.6209
2 -0.0003  0.0001  0.0001 -0.0000 -61.3054  1.7120  0.0000 -5.5050 62.9059  0.0001  0.0001 -0.0003  2.1893  0.0000 -61.7827
3 -0.0004  0.0001  0.0001 -0.0000 -74.4665 -2.9187  0.0000 -0.7149 73.0614  0.0001  0.0001 -0.0004  0.0000 -2.9115 -74.4736
4 -0.0003  0.0001  0.0001 -0.0000 -61.5303  0.9622  0.0000 -0.9774 62.0401  0.0001  0.0001 -0.0003  0.9775  0.0000 -61.5456
Element 80
GP#   e_11      e_22      e_33     e_12      s_11       s_22       s_33      s_12      VM      e_1      e_2      e_3      s_1      s_2      s_3 
1 -0.0004  0.0001  0.0001 -0.0000 -94.1273 -1.8207  0.0000 -3.0992 93.3847  0.0001  0.0001 -0.0004  0.0000 -1.7167 -94.2313
2 -0.0004  0.0001  0.0001 -0.0000 -81.5124  1.9638  0.0000 -3.2982 82.7093  0.0001  0.0001 -0.0004  2.0939  0.0000 -81.6425
3 -0.0004  0.0001  0.0001  0.0000 -94.2979 -2.3893  0.0000  1.3160 93.1542  0.0001  0.0001 -0.0004  0.0000 -2.3705 -94.3168
4 -0.0004  0.0001  0.0001  0.0000 -81.6830  1.3952  0.0000  1.1170 82.4121  0.0001  0.0001 -0.0004  1.4102  0.0000 -81.6980
Element 81
GP#   e_11      e_22      e_33     e_12      s_11       s_22       s_33      s_12      VM      e_1      e_2      e_3      s_1      s_2      s_3 
1  0.0004 -0.0001 -0.0001 -0.0000 79.4067 -1.7978  0.0000 -2.7122 80.4580  0.0004 -0.0001 -0.0001 79.4972  0.0000 -1.8883
2  0.0004 -0.0001 -0.0001 -0.0000 93.0040  2.2814  0.0000 -2.6167 91.9963  0.0004 -0.0001 -0.0001 93.0794  2.2060  0.0000
3  0.0004 -0.0001 -0.0001  0.0000 79.4886 -1.5250  0.0000  2.0469 80.3402  0.0004 -0.0001 -0.0001 79.5403  0.0000 -1.5767
4  0.0004 -0.0001 -0.0001  0.0000 93.0859  2.5542  0.0000  2.1424 91.9103  0.0004 -0.0001 -0.0001 93.1365  2.5035  0.0000
Element 82
GP#   e_11      e_22      e_33     e_12      s_11       s_22       s_33      s_12      VM      e_1      e_2      e_3      s_1      s_2      s_3 
1  0.0003 -0.0001 -0.0001 -0.0000 58.4289 -1.1027  0.0000 -5.1696 59.6637  0.0003 -0.0001 -0.0001 58.8745  0.0000 -1.5483
2  0.0003 -0.0001 -0.0001 -0.0000 71.8289  2.9173  0.0000 -4.6020 70.8653  0.0003 -0.0001 -0.0001 72.1349  2.6113  0.0000
3  0.0003 -0.0001 -0.0001 -0.0000 58.9154  0.5189  0.0000 -0.4796 58.6635  0.0003 -0.0001 -0.0001 58.9193  0.5149  0.0000
4  0.0003 -0.0001 -0.0001  0.0000 72.3154  4.5389  0.0000  0.0880 70.1563  0.0003 -0.0001 -0.0001 72.3155  4.5387  0.0000
Element 83
GP#   e_11      e_22      e_33     e_12      s_11       s_22       s_33      s_12      VM      e_1      e_2      e_3      s_1      s_2      s_3 
1  0.0002 -0.0001 -0.0000 -0.0000 39.4476 -0.7764  0.0000 -7.8970 42.1241  0.0002 -0.0000 -0.0001 40.9425  0.0000 -2.2713
2  0.0002 -0.0001 -0.0001 -0.0000 51.2054  2.7509  0.0000 -7.6290 51.6072  0.0002 -0.0001 -0.0001 52.3781  1.5781  0.0000
3  0.0002 -0.0001 -0.0000 -0.0000 39.6774 -0.0105  0.0000 -3.7818 40.2197  0.0002 -0.0000 -0.0001 40.0346  0.0000 -0.3677
4  0.0002 -0.0001 -0.0001 -0.0000 51.4351  3.5168  0.0000 -3.5138 50.1407  0.0002 -0.0001 -0.0001 51.6914  3.2605  0.0000
Element 84
GP#   e_11      e_22      e_33     e_12      s_11       s_22       s_33      s_12      VM      e_1      e_2      e_3      s_1      s_2      s_3 
1  0.0001 -0.0000 -0.0000 -0.0001 21.2650 -1.0721  0.0000 -9.7984 27.6437  0.0001 -0.0000 -0.0001 24.9539  0.0000 -4.7611
2  0.0002 -0.0000 -0.0000 -0.0001 32.6702  2.3495  0.0000 -9.6812 35.7391  0.0002 -0.0000 -0.0001 35.4977  0.0000 -0.4780
3  0.0001 -0.0000 -0.0000 -0.0000 21.3654 -0.7373  0.0000 -5.8066 23.9567  0.0001 -0.0000 -0.0000 22.7980  0.0000 -2.1698
4  0.0002 -0.0000 -0.0000 -0.0000 32.7707  2.6843  0.0000 -5.6894 33.0191  0.0002 -0.0000 -0.0000 33.8106  1.6444  0.0000
Element 85
GP#   e_11      e_22      e_33     e_12      s_11       s_22       s_33      s_12      VM      e_1      e_2      e_3      s_1      s_2      s_3 
1  0.0000 -0.0000 -0.0000 -0.0001  3.3149 -1.4801  0.0000 -10.7167 19.0428  0.0001 -0.0000 -0.0001 11.8990  0.0000 -10.0642
2  0.0001 -0.0000 -0.0000 -0.0001 14.6003  1.9055  0.0000 -10.6832 23.0515  0.0001 -0.0000 -0.0000 20.6795  0.0000 -4.1737
3  0.0000 -0.0000 -0.0000 -0.0000  3.3436 -1.3845  0.0000 -6.7668 12.4537  0.0000 -0.0000 -0.0000  8.1474  0.0000 -6.1883
4  0.0001 -0.0000 -0.0000 -0.0000 14.6290  2.0011  0.0000 -6.7333 18.0209  0.0001 -0.0000 -0.0000 17.5457  0.0000 -0.9155
Element 86
GP#   e_11      e_22      e_33     e_12      s_11       s_22       s_33      s_12      VM      e_1      e_2      e_3      s_1      s_2      s_3 
1 -0.0001  0.0000  0.0000 -0.0001 -14.6003 -1.9055  0.0000 -10.6832 23.0515  0.0000  0.0000 -0.0001  4.1737  0.0000 -20.6795
2 -0.0000  0.0000  0.0000 -0.0001 -3.3149  1.4801  0.0000 -10.7167 19.0428  0.0001  0.0000 -0.0001 10.0642  0.0000 -11.8990
3 -0.0001  0.0000  0.0000 -0.0000 -14.6290 -2.0011  0.0000 -6.7333 18.0209  0.0000  0.0000 -0.0001  0.9155  0.0000 -17.5457
4 -0.0000  0.0000  0.0000 -0.0000 -3.3436  1.3845  0.0000 -6.7668 12.4537  0.0000  0.0000 -0.0000  6.1883  0.0000 -8.1474
Element 87
GP#   e_11      e_22      e_33     e_12      s_11       s_22       s_33      s_12      VM      e_1      e_2      e_3      s_1      s_2      s_3 
1 -0.0002  0.0000  0.0000 -0.0001 -32.6702 -2.3495  0.0000 -9.6812 35.7391  0.0001  0.0000 -0.0002  0.4780  0.0000 -35.4977
2 -0.0001  0.0000  0.0000 -0.0001 -21.2650  1.0721  0.0000 -9.7984 27.6437  0.0001  0.0000 -0.0001  4.7611  0.0000 -24.9539
3 -0.0002  0.0000  0.0000 -0.0000 -32.7707 -2.6843  0.0000 -5.6894 33.0191  0.0000  0.0000 -0.0002  0.0000 -1.6444 -33.8106
4 -0.0001  0.0000  0.0000 -0.0000 -21.3654  0.7373  0.0000 -5.8066 23.9567  0.0000  0.0000 -0.0001  2.1698  0.0000 -22.7980
Element 88
GP#   e_11      e_22      e_33     e_12      s_11       s_22       s_33      s_12      VM      e_1      e_2      e_3      s_1      s_2      s_3 
1 -0.0002  0.0001  0.0001 -0.0000 -51.2054 -2.7509  0.0000 -7.6290 51.6072  0.0001  0.0001 -0.0002  0.0000 -1.5781 -52.3781
2 -0.0002  0.0001  0.0000 -0.0000 -39.4476  0.7764  0.0000 -7.8970 42.1241  0.0001  0.0000 -0.0002  2.2713  0.0000 -40.9425
3 -0.0002  0.0001  0.0001 -0.0000 -51.4351 -3.5168  0.0000 -3.5138 50.1407  0.0001  0.0001 -0.0002  0.0000 -3.2605 -51.6914
4 -0.0002  0.0001  0.0000 -0.0000 -39.6774  0.0105  0.0000 -3.7818 40.2197  0.0001  0.0000 -0.0002  0.3677  0.0000 -40.0346
Element 89
GP#   e_11      e_22      e_33     e_12      s_11       s_22       s_33      s_12      VM      e_1      e_2      e_3      s_1      s_2      s_3 
1 -0.0003  0.0001  0.0001 -0.0000 -71.8289 -2.9173  0.0000 -4.6020 70.8653  0.0001  0.0001 -0.0003  0.0000 -2.6113 -72.1349
2 -0.0003  0.0001  0.0001 -0.0000 -58.4289  1.1027  0.0000 -5.1696 59.6637  0.0001  0.0001 -0.0003  1.5483  0.0000 -58.8745
3 -0.0003  0.0001  0.0001  0.0000 -72.3154 -4.5389  0.0000  0.0880 70.1563  0.0001  0.0001 -0.0003  0.0000 -4.5387 -72.3155
4 -0.0003  0.0001  0.0001 -0.0000 -58.9154 -0.5189  0.0000 -0.4796 58.6635  0.0001  0.0001 -0.0003  0.0000 -0.5149 -58.9193
Element 90
GP#   e_11      e_22      e_33     e_12      s_11       s_22       s_33      s_12      VM      e_1      e_2      e_3      s_1      s_2      s_3 
1 -0.0004  0.0001  0.0001 -0.0000 -93.0040 -2.2814  0.0000 -2.6167 91.9963  0.0001  0.0001 -0.0004  0.0000 -2.2060 -93.0794
2 -0.0004  0.0001  0.0001 -0.0000 -79.4067  1.7978  0.0000 -2.7122 80.4580  0.0001  0.0001 -0.0004  1.8883  0.0000 -79.4972
3 -0.0004  0.0001  0.0001  0.0000 -93.0859 -2.5542  0.0000  2.1424 91.9103  0.0001  0.0001 -0.0004  0.0000 -2.5035 -93.1365
4 -0.0004  0.0001  0.0001  0.0000 -79.4886  1.5250  0.0000  2.0469 80.3402  0.0001  0.0001 -0.0004  1.5767  0.0000 -79.5402
Element 91
GP#   e_11      e_22      e_33     e_12      s_11       s_22       s_33      s_12      VM      e_1      e_2      e_3      s_1      s_2      s_3 
1  0.0004 -0.0001 -0.0001 -0.0000 75.6886 -1.3560  0.0000 -1.8753 76.4447  0.0004 -0.0001 -0.0001 75.7343  0.0000 -1.4016
2  0.0004 -0.0001 -0.0001 -0.0000 94.9802  4.4315  0.0000 -0.5953 92.8495  0.0004 -0.0001 -0.0001 94.9841  4.4276  0.0000
3  0.0004 -0.0001 -0.0001  0.0000 76.7857  2.3010  0.0000  4.8768 76.1315  0.0004 -0.0001 -0.0001 77.1037  1.9831  0.0000
4  0.0004 -0.0001 -0.0001  0.0000 96.0773  8.0885  0.0000  6.1567 92.9132  0.0004 -0.0001 -0.0001 96.5060  7.6598  0.0000
Element 92
GP#   e_11      e_22      e_33     e_12      s_11       s_22       s_33      s_12      VM      e_1      e_2      e_3      s_1      s_2      s_3 
1  0.0003 -0.0001 -0.0001 -0.0000 55.1459  0.0839  0.0000 -5.2809 55.8580  0.0003 -0.0001 -0.0001 55.6478  0.0000 -0.4180
2  0.0003 -0.0001 -0.0001 -0.0000 66.8499  3.5951  0.0000 -5.1172 65.7271  0.0003 -0.0001 -0.0001 67.2612  3.1838  0.0000
3  0.0003 -0.0001 -0.0001 -0.0000 55.2862  0.5516  0.0000 -1.1845 55.0507  0.0003 -0.0001 -0.0001 55.3118  0.5260  0.0000
4  0.0003 -0.0001 -0.0001 -0.0000 66.9902  4.0628  0.0000 -1.0208 65.0780  0.0003 -0.0001 -0.0001 67.0067  4.0463  0.0000
Element 93
GP#   e_11      e_22      e_33     e_12      s_11       s_22       s_33      s_12      VM      e_1      e_2      e_3      s_1      s_2      s_3 
1  0.0002 -0.0001 -0.0000 -0.0001 37.4140 -0.4308  0.0000 -8.3744 40.3299  0.0002 -0.0000 -0.0001 39.1843  0.0000 -2.2011
2  0.0002 -0.0001 -0.0001 -0.0001 48.4181  2.8704  0.0000 -8.3706 49.2319  0.0002 -0.0001 -0.0001 49.9078  1.3808  0.0000
3  0.0002 -0.0001 -0.0000 -0.0000 37.4172 -0.4200  0.0000 -4.5229 38.4358  0.0002 -0.0000 -0.0001 37.9504  0.0000 -0.9532
4  0.0002 -0.0001 -0.0001 -0.0000 48.4214  2.8812  0.0000 -4.5192 47.6937  0.0002 -0.0001 -0.0001 48.8655  2.4371  0.0000
Element 94
GP#   e_11      e_22      e_33     e_12      s_11       s_22       s_33      s_12      VM      e_1      e_2      e_3      s_1      s_2      s_3 
1  0.0001 -0.0000 -0.0000 -0.0001 20.1976 -0.9836  0.0000 -10.2069 27.2272  0.0001 -0.0000 -0.0001 24.3155  0.0000 -5.1016
2  0.0001 -0.0000 -0.0000 -0.0001 30.9654  2.2467  0.0000 -10.2148 34.7471  0.0002 -0.0000 -0.0001 34.2280  0.0000 -1.0159
3  0.0001 -0.0000 -0.0000 -0.0000 20.1908 -1.0062  0.0000 -6.4382 23.5233  0.0001 -0.0000 -0.0000 21.9930  0.0000 -2.8085
4  0.0001 -0.0000 -0.0000 -0.0000 30.9586  2.2241  0.0000 -6.4461 31.9246  0.0002 -0.0000 -0.0000 32.3384  0.8443  0.0000
Element 95
GP#   e_11      e_22      e_33     e_12      s_11       s_22       s_33      s_12      VM      e_1      e_2      e_3      s_1      s_2      s_3 
1  0.0000 -0.0000 -0.0000 -0.0001  3.1484 -1.4142  0.0000 -11.0920 19.6333  0.0001 -0.0000 -0.0001 12.1913  0.0000 -10.4571
2  0.0001 -0.0000 -0.0000 -0.0001 13.8745  1.8037  0.0000 -11.0952 23.2387  0.0001 -0.0000 -0.0001 20.4696  0.0000 -4.7914
3  0.0000 -0.0000 -0.0000 -0.0000  3.1458 -1.4230  0.0000 -7.3379 13.3391  0.0001 -0.0000 -0.0000  8.5466  0.0000 -6.8239
4  0.0001 -0.0000 -0.0000 -0.0000 13.8718  1.7948  0.0000 -7.3410 18.2325  0.0001 -0.0000 -0.0000 17.3388  0.0000 -1.6722
Element 96
GP#   e_11      e_22      e_33     e_12      s_11       s_22       s_33      s_12      VM      e_1      e_2      e_3      s_1      s_2      s_3 
1 -0.0001  0.0000  0.0000 -0.0001 -13.8745 -1.8037  0.0000 -11.0952 23.2387  0.0001  0.0000 -0.0001  4.7914  0.0000 -20.4696
2 -0.0000  0.0000  0.0000 -0.0001 -3.1484  1.4142  0.0000 -11.0920 19.6333  0.0001  0.0000 -0.0001 10.4571  0.0000 -12.1913
3 -0.0001  0.0000  0.0000 -0.0000 -13.8718 -1.7948  0.0000 -7.3410 18.2325  0.0000  0.0000 -0.0001  1.6722  0.0000 -17.3388
4 -0.0000  0.0000  0.0000 -0.0000 -3.1458  1.4230  0.0000 -7.3379 13.3391  0.0000  0.0000 -0.0001  6.8239  0.0000 -8.5466
Element 97
GP#   e_11      e_22      e_33     e_12      s_11       s_22       s_33      s_12      VM      e_1      e_2      e_3      s_1      s_2      s_3 
1 -0.0001  0.0000  0.0000 -0.0001 -30.9654 -2.2467  0.0000 -10.2148 34.7471  0.0001  0.0000 -0.0002  1.0159  0.0000 -34.2280
2 -0.0001  0.0000  0.0000 -0.0001 -20.1976  0.9836  0.0000 -10.2069 27.2272  0.0001  0.0000 -0.0001  5.1016  0.0000 -24.3155
3 -0.0001  0.0000  0.0000 -0.0000 -30.9586 -2.2241  0.0000 -6.4461 31.9246  0.0000  0.0000 -0.0002  0.0000 -0.8443 -32.3384
4 -0.0001  0.0000  0.0000 -0.0000 -20.1908  1.0062  0.0000 -6.4382 23.5233  0.0000  0.0000 -0.0001  2.8085  0.0000 -21.9930
Element 98
GP#   e_11      e_22      e_33     e_12      s_11       s_22       s_33      s_12      VM      e_1      e_2      e_3      s_1      s_2      s_3 
1 -0.0002  0.0001  0.0001 -0.0001 -48.4181 -2.8704  0.0000 -8.3706 49.2319  0.0001  0.0001 -0.0002  0.0000 -1.3808 -49.9078
2 -0.0002  0.0001  0.0000 -0.0001 -37.4140  0.4308  0.0000 -8.3744 40.3299  0.0001  0.0000 -0.0002  2.2011  0.0000 -39.1843
3 -0.0002  0.0001  0.0001 -0.0000 -48.4214 -2.8812  0.0000 -4.5192 47.6937  0.0001  0.0001 -0.0002  0.0000 -2.4371 -48.8655
4 -0.0002  0.0001  0.0000 -0.0000 -37.4172  0.4200  0.0000 -4.5229 38.4358  0.0001  0.0000 -0.0002  0.9532  0.0000 -37.9504
Element 99
GP#   e_11      e_22      e_33     e_12      s_11       s_22       s_33      s_12      VM      e_1      e_2      e_3      s_1      s_2      s_3 
1 -0.0003  0.0001  0.0001 -0.0000 -66.8499 -3.5951  0.0000 -5.1172 65.7271  0.0001  0.0001 -0.0003  0.0000 -3.1838 -67.2612
2 -0.0003  0.0001  0.0001 -0.0000 -55.1459 -0.0839  0.0000 -5.2809 55.8580  0.0001  0.0001 -0.0003  0.4180  0.0000 -55.6478
3 -0.0003  0.0001  0.0001 -0.0000 -66.9902 -4.0628  0.0000 -1.0208 65.0780  0.0001  0.0001 -0.0003  0.0000 -4.0463 -67.0067
4 -0.0003  0.0001  0.0001 -0.0000 -55.2862 -0.5516  0.0000 -1.1845 55.0507  0.0001  0.0001 -0.0003  0.0000 -0.5260 -55.3118
Element 100
GP#   e_11      e_22      e_33     e_12      s_11       s_22       s_33      s_12      VM      e_1      e_2      e_3      s_1      s_2      s_3 
1 -0.0004  0.0001  0.0001 -0.0000 -94.9802 -4.4315  0.0000 -0.5953 92.8495  0.0001  0.0001 -0.0004  0.0000 -4.4276 -94.9841
2 -0.0004  0.0001  0.0001 -0.0000 -75.6886  1.3560  0.0000 -1.8753 76.4447  0.0001  0.0001 -0.0004  1.4016  0.0000 -75.7342
3 -0.0004  0.0001  0.0001  0.0000 -96.0773 -8.0885  0.0000  6.1567 92.9132  0.0001  0.0001 -0.0004  0.0000 -7.6598 -96.5060
4 -0.0004  0.0001  0.0001  0.0000 -76.7857 -2.3010  0.0000  4.8768 76.1315  0.0001  0.0001 -0.0004  0.0000 -1.9831 -77.1037
Element 101
GP#   e_11      e_22      e_33     e_12      s_11       s_22       s_33      s_12      VM      e_1      e_2      e_3      s_1      s_2      s_3 
1 -0.0003  0.0001  0.0001  0.0001 -61.1185 -2.2436  0.0000  8.7111 61.8953  0.0001  0.0001 -0.0003  0.0000 -0.9818 -62.3804
2 -0.0003  0.0001  0.0001 -0.0001 -60.2921  0.5113  0.0000 -8.3746 62.2626  0.0001  0.0001 -0.0003  1.6437  0.0000 -61.4244
3 -0.0003  0.0001  0.0001  0.0001 -54.6097 -0.2910  0.0000  8.5825 56.4570  0.0001  0.0001 -0.0003  1.0328  0.0000 -55.9335
4 -0.0003  0.0001  0.0001 -0.0001 -53.7832  2.4640  0.0000 -8.5032 56.9925  0.0001  0.0001 -0.0003  3.7214  0.0000 -55.0406
Element 102
GP#   e_11      e_22      e_33     e_12      s_11       s_22       s_33      s_12      VM      e_1      e_2      e_3      s_1      s_2      s_3 
1 -0.0002  0.0001  0.0000  0.0000 -45.2937 -2.4806  0.0000  5.7233 45.2060  0.0001  0.0000 -0.0002  0.0000 -1.7287 -46.0456
2 -0.0002  0.0001  0.0000 -0.0001 -44.3122  0.7910  0.0000 -10.4991 48.2694  0.0001  0.0000 -0.0002  3.1152  0.0000 -46.6364
3 -0.0002  0.0001  0.0000  0.0000 -39.1138 -0.6266  0.0000  5.5706 39.9858  0.0001  0.0000 -0.0002  0.1635  0.0000 -39.9038
4 -0.0002  0.0001  0.0000 -0.0001 -38.1323  2.6449  0.0000 -10.6517 43.6154  0.0001  0.0000 -0.0002  5.2597  0.0000 -40.7471
Element 103
GP#   e_11      e_22      e_33     e_12      s_11       s_22       s_33      s_12      VM      e_1      e_2      e_3      s_1      s_2      s_3 
1 -0.0001  0.0000  0.0000  0.0000 -27.2494 -2.4895  0.0000  2.7943 26.5389  0.0000  0.0000 -0.0001  0.0000 -2.1780 -27.5608
2 -0.0001  0.0000  0.0000 -0.0000 -26.2038  0.9958  0.0000 -6.4195 28.9370  0.0001  0.0000 -0.0001  2.4348  0.0000 -27.6427
3 -0.0001  0.0000  0.0000  0.0000 -23.7394 -1.4365  0.0000  2.6317 23.5010  0.0000  0.0000 -0.0001  0.0000 -1.1302 -24.0457
4 -0.0001  0.0000  0.0000 -0.0000 -22.6938  2.0488  0.0000 -6.5821 26.3756  0.0001  0.0000 -0.0001  3.6909  0.0000 -24.3358
Element 104
GP#   e_11      e_22      e_33     e_12      s_11       s_22       s_33      s_12      VM      e_1      e_2      e_3      s_1      s_2      s_3 
1 -0.0000  0.0000  0.0000 -0.0000 -9.2226 -0.1202  0.0000 -0.4325  9.1936  0.0000  0.0000 -0.0000  0.0000 -0.0997 -9.2431
2 -0.0000  0.0000  0.0000 -0.0000 -8.7694  1.3905  0.0000 -3.7275 11.5200  0.0000  0.0000 -0.0001  2.6113  0.0000 -9.9902
3 -0.0000  0.0000  0.0000 -0.0000 -7.9673  0.2564  0.0000 -0.5030  8.1453  0.0000  0.0000 -0.0000  0.2870  0.0000 -7.9980
4 -0.0000  0.0000  0.0000 -0.0000 -7.5141  1.7670  0.0000 -3.7980 10.7767  0.0000  0.0000 -0.0000  3.1231  0.0000 -8.8702
Element 105
GP#   e_11      e_22      e_33     e_12      s_11       s_22       s_33      s_12      VM      e_1      e_2      e_3      s_1      s_2      s_3 
1 -0.0002  0.0001  0.0001  0.0000 -50.3848 -2.0632  0.0000  6.6837 50.7242  0.0001  0.0001 -0.0002  0.0000 -1.1558 -51.2922
2 -0.0002  0.0001  0.0000 -0.0001 -49.7027  0.2103  0.0000 -13.7169 55.1844  0.0001  0.0000 -0.0003  3.7316  0.0000 -53.2239
3 -0.0002  0.0001  0.0000  0.0000 -42.6131  0.2683  0.0000  6.5776 44.2400  0.0001  0.0000 -0.0002  1.2546  0.0000 -43.5994
4 -0.0002  0.0001  0.0000 -0.0001 -41.9310  2.5418  0.0000 -13.8230 49.4417  0.0001  0.0000 -0.0002  6.4881  0.0000 -45.8773
Element 106
GP#   e_11      e_22      e_33     e_12      s_11       s_22       s_33      s_12      VM      e_1      e_2      e_3      s_1      s_2      s_3 
1 -0.0002  0.0000  0.0000  0.0000 -35.5337 -2.0805  0.0000  3.7813 35.1559  0.0000  0.0000 -0.0002  0.0000 -1.6584 -35.9557
2 -0.0002  0.0001  0.0000 -0.0001 -34.6370  0.9083  0.0000 -11.6483 40.4853  0.0001  0.0000 -0.0002  4.3854  0.0000 -38.1141
3 -0.0001  0.0000  0.0000  0.0000 -29.6557 -0.3171  0.0000  3.6419 30.1653  0.0000  0.0000 -0.0001  0.1282  0.0000 -30.1010
4 -0.0001  0.0001  0.0000 -0.0001 -28.7590  2.6717  0.0000 -11.7878 36.4405  0.0001  0.0000 -0.0002  6.6013  0.0000 -32.6886
Element 107
GP#   e_11      e_22      e_33     e_12      s_11       s_22       s_33      s_12      VM      e_1      e_2      e_3      s_1      s_2      s_3 
1 -0.0001  0.0000  0.0000  0.0000 -21.6222 -2.2295  0.0000  0.7351 20.6374  0.0000  0.0000 -0.0001  0.0000 -2.2016 -21.6500
2 -0.0001  0.0000  0.0000 -0.0001 -20.8193  0.4468  0.0000 -8.6113 25.7955  0.0001  0.0000 -0.0001  3.4965  0.0000 -23.8689
3 -0.0001  0.0000  0.0000  0.0000 -18.0617 -1.1613  0.0000  0.6102 17.5418  0.0000  0.0000 -0.0001  0.0000 -1.1393 -18.0837
4 -0.0001  0.0000  0.0000 -0.0001 -17.2588  1.5150  0.0000 -8.7362 23.5642  0.0001  0.0000 -0.0001  4.9513  0.0000 -20.6951
Element 108
GP#   e_11      e_22      e_33     e_12      s_11       s_22       s_33      s_12      VM      e_1      e_2      e_3      s_1      s_2      s_3 
1 -0.0000  0.0000  0.0000 -0.0000 -7.0412  0.6063  0.0000 -2.4425  8.4919  0.0000  0.0000 -0.0000  1.3198  0.0000 -7.7547
2 -0.0000  0.0000  0.0000 -0.0000 -6.8850  1.1269  0.0000 -5.6189 12.2943  0.0000  0.0000 -0.0001  4.0216  0.0000 -9.7798
3 -0.0000  0.0000  0.0000 -0.0000 -5.8311  0.9693  0.0000 -2.4668  7.6713  0.0000  0.0000 -0.0000  1.7699  0.0000 -6.6317
4 -0.0000  0.0000  0.0000 -0.0000 -5.6750  1.4899  0.0000 -5.6432 11.7651  0.0000  0.0000 -0.0000  4.5917  0.0000 -8.7768
Element 109
GP#   e_11      e_22      e_33     e_12      s_11       s_22       s_33      s_12      VM      e_1      e_2      e_3      s_1      s_2      s_3 
1 -0.0002  0.0000  0.0000  0.0000 -37.8950 -1.8298  0.0000  4.9805 38.0060  0.0000  0.0000 -0.0002  0.0000 -1.1547 -38.5701
2 -0.0002  0.0001  0.0000 -0.0001 -37.3875 -0.1381  0.0000 -16.7624 47.2823  0.0001  0.0000 -0.0002  6.2943  0.0000 -43.8199
3 -0.0001  0.0000  0.0000  0.0000 -29.6119  0.6551  0.0000  4.9016 31.1251  0.0001  0.0000 -0.0001  1.4291  0.0000 -30.3859
4 -0.0001  0.0001  0.0000 -0.0001 -29.1044  2.3468  0.0000 -16.8414 42.0924  0.0001  0.0000 -0.0002  9.6630  0.0000 -36.4207
Element 110
GP#   e_11      e_22      e_33     e_12      s_11       s_22       s_33      s_12      VM      e_1      e_2      e_3      s_1      s_2      s_3 
1 -0.0001  0.0000  0.0000  0.0000 -26.1796 -1.7271  0.0000  2.3351 25.6806  0.0000  0.0000 -0.0001  0.0000 -1.5061 -26.4006
2 -0.0001  0.0000  0.0000 -0.0001 -25.4921  0.5643  0.0000 -12.9639 34.1868  0.0001  0.0000 -0.0002  5.9153  0.0000 -30.8432
3 -0.0001  0.0000  0.0000  0.0000 -20.3514  0.0213  0.0000  2.2282 20.7246  0.0000  0.0000 -0.0001  0.2622  0.0000 -20.5922
4 -0.0001  0.0000  0.0000 -0.0001 -19.6640  2.3127  0.0000 -13.0708 30.8227  0.0001  0.0000 -0.0001  8.4004  0.0000 -25.7516
Element 111
GP#   e_11      e_22      e_33     e_12      s_11       s_22       s_33      s_12      VM      e_1      e_2      e_3      s_1      s_2      s_3 
1 -0.0001  0.0000  0.0000 -0.0000 -15.9005 -1.8270  0.0000 -0.8518 15.1423  0.0000  0.0000 -0.0001  0.0000 -1.7757 -15.9519
2 -0.0001  0.0000  0.0000 -0.0001 -15.3164  0.1201  0.0000 -10.1113 23.3058  0.0001  0.0000 -0.0001  5.1223  0.0000 -20.3186
3 -0.0001  0.0000  0.0000 -0.0000 -12.3731 -0.7688  0.0000 -0.9427 12.1176  0.0000  0.0000 -0.0001  0.0000 -0.6927 -12.4491
4 -0.0001  0.0000  0.0000 -0.0001 -11.7889  1.1783  0.0000 -10.2022 21.5989  0.0001  0.0000 -0.0001  6.7828  0.0000 -17.3934
Element 112
GP#   e_11      e_22      e_33     e_12      s_11       s_22       s_33      s_12      VM      e_1      e_2      e_3      s_1      s_2      s_3 
1 -0.0000  0.0000  0.0000 -0.0000 -5.0827  0.7806  0.0000 -3.9016  8.7223  0.0000  0.0000 -0.0000  2.7292  0.0000 -7.0314
2 -0.0000  0.0000  0.0000 -0.0000 -5.0853  0.7719  0.0000 -7.0697 13.4285  0.0000  0.0000 -0.0001  5.4956  0.0000 -9.8090
3 -0.0000  0.0000  0.0000 -0.0000 -3.8758  1.1426  0.0000 -3.9012  8.1495  0.0000  0.0000 -0.0000  3.2719  0.0000 -6.0051
4 -0.0000  0.0000  0.0000 -0.0000 -3.8784  1.1339  0.0000 -7.0693 13.0634  0.0000  0.0000 -0.0001  6.1282  0.0000 -8.8727
Element 113
GP#   e_11      e_22      e_33     e_12      s_11       s_22       s_33      s_12      VM      e_1      e_2      e_3      s_1      s_2      s_3 
1 -0.0001  0.0000  0.0000  0.0000 -24.6912 -1.6093  0.0000  3.7851 24.8091  0.0000  0.0000 -0.0001  0.0000 -1.0044 -25.2960
2 -0.0001  0.0000  0.0000 -0.0001 -24.3840 -0.5853  0.0000 -18.6056 40.2387  0.0001  0.0000 -0.0002  9.6007  0.0000 -34.5700
3 -0.0001  0.0000  0.0000  0.0000 -16.1614  0.9496  0.0000  3.7373 17.8702  0.0000  0.0000 -0.0001  1.7303  0.0000 -16.9420
4 -0.0001  0.0000  0.0000 -0.0001 -15.8541  1.9737  0.0000 -18.6534 36.4745  0.0001  0.0000 -0.0002 13.7336  0.0000 -27.6141
Element 114
GP#   e_11      e_22      e_33     e_12      s_11       s_22       s_33      s_12      VM      e_1      e_2      e_3      s_1      s_2      s_3 
1 -0.0001  0.0000  0.0000  0.0000 -16.8885 -1.3860  0.0000  1.3591 16.4096  0.0000  0.0000 -0.0001  0.0000 -1.2677 -17.0067
2 -0.0001  0.0000  0.0000 -0.0001 -16.4598  0.0431  0.0000 -13.9600 29.2622  0.0001  0.0000 -0.0001  8.0079  0.0000 -24.4246
3 -0.0001  0.0000  0.0000  0.0000 -11.0526  0.3648  0.0000  1.2924 11.4602  0.0000  0.0000 -0.0001  0.5093  0.0000 -11.1971
4 -0.0001  0.0000  0.0000 -0.0001 -10.6239  1.7938  0.0000 -14.0267 26.9330  0.0001  0.0000 -0.0001 10.9244  0.0000 -19.7545
Element 115
GP#   e_11      e_22      e_33     e_12      s_11       s_22       s_33      s_12      VM      e_1      e_2      e_3      s_1      s_2      s_3 
1 -0.0000  0.0000  0.0000 -0.0000 -10.2058 -1.3360  0.0000 -1.9287 10.1720  0.0000  0.0000 -0.0000  0.0000 -0.9347 -10.6071
2 -0.0000  0.0000  0.0000 -0.0001 -9.8489 -0.1463  0.0000 -11.0900 21.5533  0.0001  0.0000 -0.0001  7.1070  0.0000 -17.1023
3 -0.0000  0.0000  0.0000 -0.0000 -6.7158 -0.2890  0.0000 -1.9842  7.4200  0.0000  0.0000 -0.0000  0.2743  0.0000 -7.2791
4 -0.0000  0.0000  0.0000 -0.0001 -6.3589  0.9007  0.0000 -11.1455 20.4851  0.0001  0.0000 -0.0001  8.9925  0.0000 -14.4508
Element 116
GP#   e_11      e_22      e_33     e_12      s_11       s_22       s_33      s_12      VM      e_1      e_2      e_3      s_1      s_2      s_3 
1 -0.0000  0.0000  0.0000 -0.0000 -3.2471  0.5552  0.0000 -4.8566  9.1332  0.0000  0.0000 -0.0000  3.8695  0.0000 -6.5614
2 -0.0000  0.0000  0.0000 -0.0000 -3.2953  0.3944  0.0000 -8.0322 14.3479  0.0000  0.0000 -0.0001  6.7909  0.0000 -9.6918
3 -0.0000  0.0000  0.0000 -0.0000 -2.0374  0.9181  0.0000 -4.8491  8.7981  0.0000  0.0000 -0.0000  4.5096  0.0000 -5.6289
4 -0.0000  0.0000  0.0000 -0.0000 -2.0856  0.7574  0.0000 -8.0247 14.1312  0.0000  0.0000 -0.0001  7.4855  0.0000 -8.8137
Element 117
GP#   e_11      e_22      e_33     e_12      s_11       s_22       s_33      s_12      VM      e_1      e_2      e_3      s_1      s_2      s_3 
1 -0.0001  0.0000  0.0000  0.0000 -11.1503 -1.4009  0.0000  3.1674 11.8646  0.0000  0.0000 -0.0001  0.0000 -0.4622 -12.0890
2 -0.0001  0.0000  0.0000 -0.0001 -11.0476 -1.0586  0.0000 -19.4910 35.3719  0.0001  0.0000 -0.0001 14.0677  0.0000 -26.1738
3 -0.0000  0.0000  0.0000  0.0000 -2.5185  1.1887  0.0000  3.1515  6.3675  0.0000  0.0000 -0.0000  2.9912  0.0000 -4.3211
4 -0.0000  0.0000  0.0000 -0.0001 -2.4158  1.5310  0.0000 -19.5070 33.9624  0.0001  0.0000 -0.0001 19.1641  0.0000 -20.0489
Element 118
GP#   e_11      e_22      e_33     e_12      s_11       s_22       s_33      s_12      VM      e_1      e_2      e_3      s_1      s_2      s_3 
1 -0.0000  0.0000  0.0000  0.0000 -7.5844 -1.0473  0.0000  0.8567  7.2718  0.0000  0.0000 -0.0000  0.0000 -0.9369 -7.6948
2 -0.0000  0.0000  0.0000 -0.0001 -7.4391 -0.5629  0.0000 -14.4958 26.1123  0.0001  0.0000 -0.0001 10.8969  0.0000 -18.8989
3 -0.0000  0.0000  0.0000  0.0000 -1.7359  0.7073  0.0000  0.8341  2.6131  0.0000  0.0000 -0.0000  0.9649  0.0000 -1.9934
4 -0.0000  0.0000  0.0000 -0.0001 -1.5905  1.1917  0.0000 -14.5184 25.2625  0.0001  0.0000 -0.0001 14.3854  0.0000 -14.7843
Element 119
GP#   e_11      e_22      e_33     e_12      s_11       s_22       s_33      s_12      VM      e_1      e_2      e_3      s_1      s_2      s_3 
1 -0.0000  0.0000  0.0000 -0.0000 -4.5504 -0.7966  0.0000 -2.4799  6.0138  0.0000  0.0000 -0.0000  0.4366  0.0000 -5.7836
2 -0.0000  0.0000  0.0000 -0.0001 -4.4302 -0.3959  0.0000 -11.5843 20.5089  0.0001  0.0000 -0.0001  9.3456  0.0000 -14.1716
3 -0.0000  0.0000  0.0000 -0.0000 -1.0821  0.2439  0.0000 -2.4986  4.4970  0.0000  0.0000 -0.0000  2.1660  0.0000 -3.0041
4 -0.0000  0.0000  0.0000 -0.0001 -0.9618  0.6446  0.0000 -11.6030 20.1457  0.0001  0.0000 -0.0001 11.4721  0.0000 -11.7893
Element 120
GP#   e_11      e_22      e_33     e_12      s_11       s_22       s_33      s_12      VM      e_1      e_2      e_3      s_1      s_2      s_3 
1 -0.0000  0.0000  0.0000 -0.0000 -1.4791  0.0904  0.0000 -5.3273  9.3525  0.0000  0.0000 -0.0000  4.6904  0.0000 -6.0791
2 -0.0000  0.0000  0.0000 -0.0001 -1.5030  0.0107  0.0000 -8.5080 14.8133  0.0001  0.0000 -0.0001  7.7954  0.0000 -9.2878
3 -0.0000  0.0000 -0.0000 -0.0000 -0.2674  0.4539  0.0000 -5.3235  9.2422  0.0000 -0.0000 -0.0000  5.4290  0.0000 -5.2425
4 -0.0000  0.0000 -0.0000 -0.0001 -0.2913  0.3742  0.0000 -8.5043 14.7412  0.0001 -0.0000 -0.0001  8.5522  0.0000 -8.4694
Element 121
GP#   e_11      e_22      e_33     e_12      s_11       s_22       s_33      s_12      VM      e_1      e_2      e_3      s_1      s_2      s_3 
1  0.0000 -0.0000 -0.0000  0.0000  2.5185 -1.1887  0.0000  3.1515  6.3675  0.0000 -0.0000 -0.0000  4.3211  0.0000 -2.9912
2  0.0000 -0.0000 -0.0000 -0.0001  2.4158 -1.5310  0.0000 -19.5070 33.9624  0.0001 -0.0000 -0.0001 20.0489  0.0000 -19.1641
3  0.0001 -0.0000 -0.0000  0.0000 11.1503  1.4009  0.0000  3.1674 11.8646  0.0001 -0.0000 -0.0000 12.0890  0.4622  0.0000
4  0.0001 -0.0000 -0.0000 -0.0001 11.0476  1.0586  0.0000 -19.4910 35.3719  0.0001 -0.0000 -0.0001 26.1738  0.0000 -14.0677
Element 122
GP#   e_11      e_22      e_33     e_12      s_11       s_22       s_33      s_12      VM      e_1      e_2      e_3      s_1      s_2      s_3 
1  0.0000 -0.0000 -0.0000  0.0000  1.7359 -0.7073  0.0000  0.8341  2.6131  0.0000 -0.0000 -0.0000  1.9934  0.0000 -0.9649
2  0.0000 -0.0000 -0.0000 -0.0001  1.5905 -1.1917  0.0000 -14.5184 25.2625  0.0001 -0.0000 -0.0001 14.7843  0.0000 -14.3854
3  0.0000 -0.0000 -0.0000  0.0000  7.5844  1.0473  0.0000  0.8567  7.2718  0.0000 -0.0000 -0.0000  7.6948  0.9369  0.0000
4  0.0000 -0.0000 -0.0000 -0.0001  7.4391  0.5629  0.0000 -14.4958 26.1123  0.0001 -0.0000 -0.0001 18.8989  0.0000 -10.8969
Element 123
GP#   e_11      e_22      e_33     e_12      s_11       s_22       s_33      s_12      VM      e_1      e_2      e_3      s_1      s_2      s_3 
1  0.0000 -0.0000 -0.0000 -0.0000  1.0821 -0.2439  0.0000 -2.4986  4.4970  0.0000 -0.0000 -0.0000  3.0041  0.0000 -2.1660
2  0.0000 -0.0000 -0.0000 -0.0001  0.9618 -0.6446  0.0000 -11.6030 20.1457  0.0001 -0.0000 -0.0001 11.7893  0.0000 -11.4721
3  0.0000 -0.0000 -0.0000 -0.0000  4.5504  0.7966  0.0000 -2.4799  6.0138  0.0000 -0.0000 -0.0000  5.7836  0.0000 -0.4366
4  0.0000 -0.0000 -0.0000 -0.0001  4.4302  0.3959  0.0000 -11.5843 20.5089  0.0001 -0.0000 -0.0001 14.1716  0.0000 -9.3456
Element 124
GP#   e_11      e_22      e_33     e_12      s_11       s_22       s_33      s_12      VM      e_1      e_2      e_3      s_1      s_2      s_3 
1  0.0000 -0.0000  0.0000 -0.0000  0.2674 -0.4539  0.0000 -5.3235  9.2422  0.0000  0.0000 -0.0000  5.2425  0.0000 -5.4290
2  0.0000 -0.0000  0.0000 -0.0001  0.2913 -0.3742  0.0000 -8.5043 14.7412  0.0001  0.0000 -0.0001  8.4694  0.0000 -8.5522
3  0.0000 -0.0000 -0.0000 -0.0000  1.4791 -0.0904  0.0000 -5.3273  9.3525  0.0000 -0.0000 -0.0000  6.0791  0.0000 -4.6904
4  0.0000 -0.0000 -0.0000 -0.0001  1.5030 -0.0107  0.0000 -8.5080 14.8133  0.0001 -0.0000 -0.0001  9.2878  0.0000 -7.7954
Element 125
GP#   e_11      e_22      e_33     e_12      s_11       s_22       s_33      s_12      VM      e_1      e_2      e_3      s_1      s_2      s_3 
1  0.0001 -0.0000 -0.0000  0.0000 16.1614 -0.9496  0.0000  3.7373 17.8702  0.0001 -0.0000 -0.0000 16.9420  0.0000 -1.7303
2  0.0001 -0.0000 -0.0000 -0.0001 15.8541 -1.9737  0.0000 -18.6534 36.4745  0.0002 -0.0000 -0.0001 27.6141  0.0000 -13.7336
3  0.0001 -0.0000 -0.0000  0.0000 24.6912  1.6093  0.0000  3.7851 24.8091  0.0001 -0.0000 -0.0000 25.2960  1.0044  0.0000
4  0.0001 -0.0000 -0.0000 -0.0001 24.3840  0.5853  0.0000 -18.6056 40.2387  0.0002 -0.0000 -0.0001 34.5700  0.0000 -9.6007
Element 126
GP#   e_11      e_22      e_33     e_12      s_11       s_22       s_33      s_12      VM      e_1      e_2      e_3      s_1      s_2      s_3 
1  0.0001 -0.0000 -0.0000  0.0000 11.0526 -0.3648  0.0000  1.2924 11.4602  0.0001 -0.0000 -0.0000 11.1971  0.0000 -0.5093
2  0.0001 -0.0000 -0.0000 -0.0001 10.6239 -1.7938  0.0000 -14.0267 26.9330  0.0001 -0.0000 -0.0001 19.7545  0.0000 -10.9244
3  0.0001 -0.0000 -0.0000  0.0000 16.8885  1.3860  0.0000  1.3591 16.4096  0.0001 -0.0000 -0.0000 17.0067  1.2677  0.0000
4  0.0001 -0.0000 -0.0000 -0.0001 16.4598 -0.0431  0.0000 -13.9600 29.2622  0.0001 -0.0000 -0.0001 24.4246  0.0000 -8.0079
Element 127
GP#   e_11      e_22      e_33     e_12      s_11       s_22       s_33      s_12      VM      e_1      e_2      e_3      s_1      s_2      s_3 
1  0.0000 -0.0000 -0.0000 -0.0000  6.7158  0.2890  0.0000 -1.9842  7.4200  0.0000 -0.0000 -0.0000  7.2791  0.0000 -0.2743
2  0.0000 -0.0000 -0.0000 -0.0001  6.3589 -0.9007  0.0000 -11.1455 20.4851  0.0001 -0.0000 -0.0001 14.4508  0.0000 -8.9925
3  0.0000 -0.0000 -0.0000 -0.0000 10.2058  1.3360  0.0000 -1.9287 10.1720  0.0000 -0.0000 -0.0000 10.6071  0.9347  0.0000
4  0.0000 -0.0000 -0.0000 -0.0001  9.8489  0.1463  0.0000 -11.0900 21.5533  0.0001 -0.0000 -0.0001 17.1023  0.0000 -7.1070
Element 128
GP#   e_11      e_22      e_33     e_12      s_11       s_22       s_33      s_12      VM      e_1      e_2      e_3      s_1      s_2      s_3 
1  0.0000 -0.0000 -0.0000 -0.0000  2.0374 -0.9181  0.0000 -4.8491  8.7981  0.0000 -0.0000 -0.0000  5.6289  0.0000 -4.5096
2  0.0000 -0.0000 -0.0000 -0.0000  2.0856 -0.7574  0.0000 -8.0247 14.1312  0.0001 -0.0000 -0.0000  8.8137  0.0000 -7.4855
3  0.0000 -0.0000 -0.0000 -0.0000  3.2471 -0.5552  0.0000 -4.8566  9.1332  0.0000 -0.0000 -0.0000  6.5614  0.0000 -3.8695
4  0.0000 -0.0000 -0.0000 -0.0000  3.2953 -0.3944  0.0000 -8.0322 14.3479  0.0001 -0.0000 -0.0000  9.6918  0.0000 -6.7909
Element 129
GP#   e_11      e_22      e_33     e_12      s_11       s_22       s_33      s_12      VM      e_1      e_2      e_3      s_1      s_2      s_3 
1  0.0001 -0.0000 -0.0000  0.0000 29.6119 -0.6551  0.0000  4.9016 31.1251  0.0001 -0.0000 -0.0001 30.3859  0.0000 -1.4291
2  0.0001 -0.0001 -0.0000 -0.0001 29.1044 -2.3468  0.0000 -16.8414 42.0924  0.0002 -0.0000 -0.0001 36.4207  0.0000 -9.6630
3  0.0002 -0.0000 -0.0000  0.0000 37.8950  1.8298  0.0000  4.9805 38.0060  0.0002 -0.0000 -0.0000 38.5701  1.1547  0.0000
4  0.0002 -0.0001 -0.0000 -0.0001 37.3875  0.1381  0.0000 -16.7624 47.2823  0.0002 -0.0000 -0.0001 43.8199  0.0000 -6.2943
Element 130
GP#   e_11      e_22      e_33     e_12      s_11       s_22       s_33      s_12      VM      e_1      e_2      e_3      s_1      s_2      s_3 
1  0.0001 -0.0000 -0.0000  0.0000 20.3514 -0.0213  0.0000  2.2282 20.7246  0.0001 -0.0000 -0.0000 20.5922  0.0000 -0.2622
2  0.0001 -0.0000 -0.0000 -0.0001 19.6640 -2.3127  0.0000 -13.0708 30.8227  0.0001 -0.0000 -0.0001 25.7516  0.0000 -8.4004
3  0.0001 -0.0000 -0.0000  0.0000 26.1796  1.7271  0.0000  2.3351 25.6806  0.0001 -0.0000 -0.0000 26.4006  1.5061  0.0000
4  0.0001 -0.0000 -0.0000 -0.0001 25.4921 -0.5643  0.0000 -12.9639 34.1868  0.0002 -0.0000 -0.0001 30.8432  0.0000 -5.9153
Element 131
GP#   e_11      e_22      e_33     e_12      s_11       s_22       s_33      s_12      VM      e_1      e_2      e_3      s_1      s_2      s_3 
1  0.0001 -0.0000 -0.0000 -0.0000 12.3731  0.7688  0.0000 -0.9427 12.1176  0.0001 -0.0000 -0.0000 12.4491  0.6927  0.0000
2  0.0001 -0.0000 -0.0000 -0.0001 11.7889 -1.1783  0.0000 -10.2022 21.5989  0.0001 -0.0000 -0.0001 17.3934  0.0000 -6.7828
3  0.0001 -0.0000 -0.0000 -0.0000 15.9005  1.8270  0.0000 -0.8518 15.1423  0.0001 -0.0000 -0.0000 15.9519  1.7757  0.0000
4  0.0001 -0.0000 -0.0000 -0.0001 15.3164 -0.1201  0.0000 -10.1113 23.3058  0.0001 -0.0000 -0.0001 20.3186  0.0000 -5.1223
Element 132
GP#   e_11      e_22      e_33     e_12      s_11       s_22       s_33      s_12      VM      e_1      e_2      e_3      s_1      s_2      s_3 
1  0.0000 -0.0000 -0.0000 -0.0000  3.8758 -1.1426  0.0000 -3.9012  8.1495  0.0000 -0.0000 -0.0000  6.0051  0.0000 -3.2719
2  0.0000 -0.0000 -0.0000 -0.0000  3.8784 -1.1339  0.0000 -7.0693 13.0634  0.0001 -0.0000 -0.0000  8.8727  0.0000 -6.1282
3  0.0000 -0.0000 -0.0000 -0.0000  5.0827 -0.7806  0.0000 -3.9016  8.7223  0.0000 -0.0000 -0.0000  7.0314  0.0000 -2.7292
4  0.0000 -0.0000 -0.0000 -0.0000  5.0853 -0.7719  0.0000 -7.0697 13.4285  0.0001 -0.0000 -0.0000  9.8090  0.0000 -5.4956
Element 133
GP#   e_11      e_22      e_33     e_12      s_11       s_22       s_33      s_12      VM      e_1      e_2      e_3      s_1      s_2      s_3 
1  0.0002 -0.0001 -0.0000  0.0000 42.6131 -0.2683  0.0000  6.5776 44.2400  0.0002 -0.0000 -0.0001 43.5994  0.0000 -1.2546
2  0.0002 -0.0001 -0.0000 -0.0001 41.9310 -2.5418  0.0000 -13.8230 49.4417  0.0002 -0.0000 -0.0001 45.8773  0.0000 -6.4881
3  0.0002 -0.0001 -0.0001  0.0000 50.3848  2.0632  0.0000  6.6837 50.7242  0.0002 -0.0001 -0.0001 51.2922  1.1558  0.0000
4  0.0002 -0.0001 -0.0000 -0.0001 49.7027 -0.2103  0.0000 -13.7169 55.1844  0.0003 -0.0000 -0.0001 53.2239  0.0000 -3.7316
Element 134
GP#   e_11      e_22      e_33     e_12      s_11       s_22       s_33      s_12      VM      e_1      e_2      e_3      s_1      s_2      s_3 
1  0.0001 -0.0000 -0.0000  0.0000 29.6557  0.3171  0.0000  3.6419 30.1653  0.0001 -0.0000 -0.0000 30.1010  0.0000 -0.1282
2  0.0001 -0.0001 -0.0000 -0.0001 28.7590 -2.6717  0.0000 -11.7878 36.4405  0.0002 -0.0000 -0.0001 32.6886  0.0000 -6.6013
3  0.0002 -0.0000 -0.0000  0.0000 35.5337  2.0805  0.0000  3.7813 35.1559  0.0002 -0.0000 -0.0000 35.9557  1.6584  0.0000
4  0.0002 -0.0001 -0.0000 -0.0001 34.6370 -0.9083  0.0000 -11.6483 40.4853  0.0002 -0.0000 -0.0001 38.1141  0.0000 -4.3854
Element 135
GP#   e_11      e_22      e_33     e_12      s_11       s_22       s_33      s_12      VM      e_1      e_2      e_3      s_1      s_2      s_3 
1  0.0001 -0.0000 -0.0000  0.0000 18.0617  1.1613  0.0000  0.6102 17.5418  0.0001 -0.0000 -0.0000 18.0837  1.1393  0.0000
2  0.0001 -0.0000 -0.0000 -0.0001 17.2588 -1.5150  0.0000 -8.7362 23.5642  0.0001 -0.0000 -0.0001 20.6951  0.0000 -4.9513
3  0.0001 -0.0000 -0.0000  0.0000 21.6222  2.2295  0.0000  0.7351 20.6374  0.0001 -0.0000 -0.0000 21.6500  2.2016  0.0000
4  0.0001 -0.0000 -0.0000 -0.0001 20.8193 -0.4468  0.0000 -8.6113 25.7955  0.0001 -0.0000 -0.0001 23.8689  0.0000 -3.4965
Element 136
GP#   e_11      e_22      e_33     e_12      s_11       s_22       s_33      s_12      VM      e_1      e_2      e_3      s_1      s_2      s_3 
1  0.0000 -0.0000 -0.0000 -0.0000  5.8311 -0.9693  0.0000 -2.4668  7.6713  0.0000 -0.0000 -0.0000  6.6317  0.0000 -1.7699
2  0.0000 -0.0000 -0.0000 -0.0000  5.6750 -1.4899  0.0000 -5.6432 11.7651  0.0000 -0.0000 -0.0000  8.7768  0.0000 -4.5917
3  0.0000 -0.0000 -0.0000 -0.0000  7.0412 -0.6063  0.0000 -2.4425  8.4919  0.0000 -0.0000 -0.0000  7.7547  0.0000 -1.3198
4  0.0000 -0.0000 -0.0000 -0.0000  6.8850 -1.1269  0.0000 -5.6189 12.2943  0.0001 -0.0000 -0.0000  9.7798  0.0000 -4.0216
Element 137
GP#   e_11      e_22      e_33     e_12      s_11       s_22       s_33      s_12      VM      e_1      e_2      e_3      s_1      s_2      s_3 
1  0.0003 -0.0001 -0.0001  0.0001 54.6097  0.2910  0.0000  8.5825 56.4570  0.0003 -0.0001 -0.0001 55.9335  0.0000 -1.0328
2  0.0003 -0.0001 -0.0001 -0.0001 53.7832 -2.4640  0.0000 -8.5032 56.9925  0.0003 -0.0001 -0.0001 55.0406  0.0000 -3.7214
3  0.0003 -0.0001 -0.0001  0.0001 61.1185  2.2436  0.0000  8.7111 61.8953  0.0003 -0.0001 -0.0001 62.3804  0.9818  0.0000
4  0.0003 -0.0001 -0.0001 -0.0001 60.2921 -0.5113  0.0000 -8.3746 62.2626  0.0003 -0.0001 -0.0001 61.4244  0.0000 -1.6437
Element 138
GP#   e_11      e_22      e_33     e_12      s_11       s_22       s_33      s_12      VM      e_1      e_2      e_3      s_1      s_2      s_3 
1  0.0002 -0.0001 -0.0000  0.0000 39.1138  0.6266  0.0000  5.5706 39.9858  0.0002 -0.0000 -0.0001 39.9038  0.0000 -0.1635
2  0.0002 -0.0001 -0.0000 -0.0001 38.1323 -2.6449  0.0000 -10.6517 43.6154  0.0002 -0.0000 -0.0001 40.7471  0.0000 -5.2597
3  0.0002 -0.0001 -0.0000  0.0000 45.2937  2.4806  0.0000  5.7233 45.2060  0.0002 -0.0000 -0.0001 46.0456  1.7287  0.0000
4  0.0002 -0.0001 -0.0000 -0.0001 44.3122 -0.7910  0.0000 -10.4991 48.2694  0.0002 -0.0000 -0.0001 46.6364  0.0000 -3.1152
Element 139
GP#   e_11      e_22      e_33     e_12      s_11       s_22       s_33      s_12      VM      e_1      e_2      e_3      s_1      s_2      s_3 
1  0.0001 -0.0000 -0.0000  0.0000 23.7394  1.4365  0.0000  2.6317 23.5010  0.0001 -0.0000 -0.0000 24.0457  1.1302  0.0000
2  0.0001 -0.0000 -0.0000 -0.0000 22.6938 -2.0488  0.0000 -6.5821 26.3756  0.0001 -0.0000 -0.0001 24.3358  0.0000 -3.6909
3  0.0001 -0.0000 -0.0000  0.0000 27.2494  2.4895  0.0000  2.7943 26.5389  0.0001 -0.0000 -0.0000 27.5608  2.1780  0.0000
4  0.0001 -0.0000 -0.0000 -0.0000 26.2038 -0.9958  0.0000 -6.4195 28.9370  0.0001 -0.0000 -0.0001 27.6427  0.0000 -2.4348
Element 140
GP#   e_11      e_22      e_33     e_12      s_11       s_22       s_33      s_12      VM      e_1      e_2      e_3      s_1      s_2      s_3 
1  0.0000 -0.0000 -0.0000 -0.0000  7.9673 -0.2564  0.0000 -0.5030  8.1453  0.0000 -0.0000 -0.0000  7.9980  0.0000 -0.2870
2  0.0000 -0.0000 -0.0000 -0.0000  7.5141 -1.7670  0.0000 -3.7980 10.7767  0.0000 -0.0000 -0.0000  8.8702  0.0000 -3.1231
3  0.0000 -0.0000 -0.0000 -0.0000  9.2226  0.1202  0.0000 -0.4325  9.1936  0.0000 -0.0000 -0.0000  9.2431  0.0997  0.0000
4  0.0000 -0.0000 -0.0000 -0.0000  8.7694 -1.3905  0.0000 -3.7275 11.5200  0.0001 -0.0000 -0.0000  9.9902  0.0000 -2.6113
